In O H                                  
   1.00000000000000     
    14.4942117030500004    0.0000000000000000    0.0000000000000000
    -7.2471058515250002   12.5523555426710001    0.0000000000000000
     0.0000000000000000    0.0000000000000000   26.8344742987830003
   In   O    H 
    48    72     1
Selective dynamics
Direct
  0.2830632603297183  0.0163746725886160  0.1057051905592731   T   T   T
  0.2442489692178365  0.2319773847082869  0.1020138045051825   T   T   T
  0.7381278440161642  0.2198462870891889  0.1055810848036457   T   T   T
  0.9929771765686277  0.2586654894731587  0.1019500316756613   T   T   T
  0.2711984203228816  0.5101134118978439  0.1022349876858362   T   T   T
  0.4867892527149416  0.7645766764631593  0.1063429357938668   T   T   T
  0.9987298102345809  0.0075734671164422  0.1116870964091421   T   T   T
  0.0141390162596115  0.5042093905375361  0.1111306000564855   T   T   T
  0.4953699345766879  0.4891537991503239  0.1119603790987781   T   T   T
  0.5026070264021001  0.0002018063498420  0.0991808467297987   T   T   T
  0.5155886302177984  0.2390089237949768  0.1101741704779293   T   T   T
  0.7233938534244285  0.4879740770355590  0.1203805373134876   T   T   T
  0.0155558193945922  0.7340163391534332  0.1205528799185189   T   T   T
  0.2641746054788207  0.7748250583510704  0.1105674986170756   T   T   T
  0.7690504473619653  0.7796576863128772  0.1206599196357835   T   T   T
  0.7281968783922531  0.9869613352434917  0.1108005329955156   T   T   T
  0.1576953624343368  0.0931198937310333  0.2116582526896310   T   T   T
  0.9392202314648065  0.3443928244575004  0.2110355722293159   T   T   T
  0.4100052343414659  0.5629653116215821  0.2122926624619559   T   T   T
  0.9035510488973345  0.5572669234425933  0.2138523068946736   T   T   T
  0.6595581986750275  0.6004108666460997  0.2149355504094620   T   T   T
  0.9455629780061454  0.8435080316280243  0.2147990121520148   T   T   T
  0.6675566792736553  0.3325476597665838  0.2191320952864182   T   T   T
  0.1707604988455999  0.8358483592330788  0.2197402952162904   T   T   T
  0.6692910206186020  0.8339609778002767  0.2205854847865054   T   T   T
  0.1694721231989907  0.3334677153705770  0.2196420609265355   T   T   T
  0.6788185889895364  0.0673542791990229  0.2248842301979263   T   T   T
  0.4353353233212144  0.1100495316844980  0.2248720251545530   T   T   T
  0.9284671756095236  0.1046694166664990  0.2287209096993945   T   T   T
  0.3980913011578466  0.3218618316587831  0.2286419828081352   T   T   T
  0.1804860153498291  0.5741406490707563  0.2281799816760693   T   T   T
  0.3930711740955553  0.8239651899517217  0.2255352824986539   T   T   T
  0.6146410897084053  0.1790227387676507  0.3204243787588853   T   T   T
  0.8151405017806950  0.4259620102707844  0.3250953541804141   T   T   T
  0.6111392723254158  0.6812592295193054  0.3295214314183376   T   T   T
  0.0759581412794388  0.8951983014675295  0.3288872905136075   T   T   T
  0.5701775650886244  0.8888887767906805  0.3209915976637899   T   T   T
  0.3255030017989386  0.9359903349126739  0.3207078532055579   T   T   T
  0.3247029677351634  0.1633904909567816  0.3291806832001047   T   T   T
  0.8424045626200527  0.1781830710430599  0.3286849457132687   T   T   T
  0.3409954023304181  0.6622998186518156  0.3297529982060027   T   T   T
  0.8365516037817028  0.6677968275186844  0.3411152499943833   T   T   T
  0.0679514757401060  0.1572178741895787  0.3382135557404294   T   T   T
  0.3477905182929106  0.4087686811726835  0.3381957710489493   T   T   T
  0.1025335730761631  0.4325833090714849  0.3375078328903988   T   T   T
  0.5998334611988243  0.4481937004121394  0.3341113417725075   T   T   T
  0.0611726100221231  0.6589808209764455  0.3334155948156501   T   T   T
  0.8521556642539120  0.9027800915994137  0.3343915366350186   T   T   T
  0.5882001619449995  0.1616948829320737  0.0691280968052386   T   T   T
  0.3411395491236929  0.9242271114656461  0.0693008441814485   T   T   T
  0.5784757328909370  0.9143790393531663  0.0696193300431667   T   T   T
  0.8323067453089247  0.1480009157293586  0.0830664408779054   T   T   T
  0.3546083340969287  0.1819493968587110  0.0825834642785258   T   T   T
  0.3210678048434396  0.6706404568521142  0.0831294251052258   T   T   T
  0.5686772640459313  0.4023838096777210  0.0886114566468225   T   T   T
  0.1009805247245670  0.6647251417125692  0.0887723479450596   T   T   T
  0.8383485898437097  0.9341505703046259  0.0887287751784046   T   T   T
  0.0764482752137870  0.1733312897542696  0.0870810090644132   T   T   T
  0.3298091034266765  0.4011334708872339  0.0871880674358321   T   T   T
  0.1021674326090862  0.4264833430829124  0.0870178577068677   T   T   T
  0.8914349578901313  0.5614562009865038  0.1222988211336430   T   T   T
  0.6750850707698288  0.6117911610988420  0.1222514713537163   T   T   T
  0.9415806061268274  0.8278052357740592  0.1223369180207386   T   T   T
  0.1623558343589415  0.0562717018770417  0.1301568957586954   T   T   T
  0.8986951588698284  0.3407052285722563  0.1297965499985364   T   T   T
  0.4465153054980213  0.6039879471586158  0.1307565393430856   T   T   T
  0.6886788664554698  0.3253049016314731  0.1395501876702223   T   T   T
  0.6415420601800047  0.8145445928076219  0.1404655109311264   T   T   T
  0.1781034191556371  0.8615780443107184  0.1398881253443852   T   T   T
  0.4296958790013389  0.0781179468761180  0.1476554044506920   T   T   T
  0.6531878182516462  0.0733567324899994  0.1477812071403041   T   T   T
  0.4245336272055922  0.8492386858580327  0.1482538822774827   T   T   T
  0.0132578473150937  0.2519455687663312  0.1817946150607772   T   T   T
  0.2516209955235458  0.2597689964866684  0.1816915947748147   T   T   T
  0.2431240231334734  0.4898693134206378  0.1819404459330070   T   T   T
  0.9827402640760072  0.0063868790237819  0.1922693304732445   T   T   T
  0.4969829222735347  0.4747883473557030  0.1925943341709787   T   T   T
  0.0279510496789710  0.5189306506405876  0.1919361444196891   T   T   T
  0.5038056362540618  0.2741539450079921  0.1971818230206505   T   T   T
  0.2280258815993984  0.7283671805142280  0.1985110295452843   T   T   T
  0.7745842254387388  0.9984488220369108  0.1980577480430371   T   T   T
  0.7347206474686330  0.5067931728516392  0.2014023839537197   T   T   T
  0.9967901697489207  0.7255313414629075  0.2016325034004390   T   T   T
  0.7774237641618822  0.7690426151610588  0.2014399562228001   T   T   T
  0.6038518299602585  0.1600357051307026  0.2399118304433807   T   T   T
  0.5609102918745656  0.8993575181650314  0.2405359996366976   T   T   T
  0.3438505068900503  0.9428168663356183  0.2400152441564302   T   T   T
  0.8325022265991889  0.3919308079810088  0.2426273898038445   T   T   T
  0.5636217426356668  0.6692976900714633  0.2436241004003277   T   T   T
  0.1101549152823302  0.9395724538277423  0.2430459658867097   T   T   T
  0.3102041203856336  0.1469770556042088  0.2487600282096757   T   T   T
  0.8412529375065391  0.1929512022696071  0.2485153440347813   T   T   T
  0.3533747304781893  0.6602522406107897  0.2497042178583173   T   T   T
  0.0954221589716521  0.1783447073151847  0.2588716098615456   T   T   T
  0.0868273644337144  0.4077733851090007  0.2590323427082230   T   T   T
  0.3245197334845302  0.4157885165024472  0.2590548689262773   T   T   T
  0.6871471772442362  0.5947718089131346  0.2924571315072775   T   T   T
  0.9150796748239094  0.5847907599874433  0.2931335981012018   T   T   T
  0.9144298006469286  0.8168943111631495  0.2927096883607951   T   T   T
  0.6462273524423090  0.3408084225708944  0.2995986906697966   T   T   T
  0.1639154113380606  0.8094521870016833  0.3000275294062072   T   T   T
  0.6979695722367228  0.8542185932625972  0.3008079083075086   T   T   T
  0.8931507461846062  0.0650030701510894  0.3110199406257633   T   T   T
  0.4392063515989061  0.3270973675676565  0.3105735203118844   T   T   T
  0.1693817730815817  0.6047996203300560  0.3131384140435297   T   T   T
  0.6640668459314328  0.0570333540162725  0.3211360781935780   T   T   T
  0.4475085822314643  0.1068452846297615  0.3204062126945679   T   T   T
  0.3960110536553198  0.8387169738210022  0.3203317374777440   T   T   T
  0.2365320801468452  0.2415354244793874  0.3540507000078402   T   T   T
  0.0091386473417231  0.2677920002782172  0.3548217139232196   T   T   T
  0.2670784081658107  0.4970780203450512  0.3548923948070681   T   T   T
  0.2376840794096917  0.0032585655418916  0.3524978715303095   T   T   T
  0.7722483262597248  0.2695437340815395  0.3512473909993076   T   T   T
  0.5015577244271839  0.7341890228132791  0.3526098408641894   T   T   T
  0.9837617635214461  0.4820177458776122  0.3653256416827526   T   T   T
  0.5077901190045028  0.5203211915401826  0.3578610205435579   T   T   T
  0.0175139425332148  0.9966207286110288  0.3576488579726941   T   T   T
  0.7517874771332671  0.5054421361353150  0.3701306057462618   T   T   T
  0.7607802771381263  0.7528227924080038  0.3712559870699221   T   T   T
  0.9985000948767194  0.7431600606958070  0.3710208269120529   T   T   T
  0.9650307277663638  0.4669356272197926  0.4005517187688584   T   T   T
 
  0.00000000E+00  0.00000000E+00  0.00000000E+00
  0.00000000E+00  0.00000000E+00  0.00000000E+00
  0.00000000E+00  0.00000000E+00  0.00000000E+00
  0.00000000E+00  0.00000000E+00  0.00000000E+00
  0.00000000E+00  0.00000000E+00  0.00000000E+00
  0.00000000E+00  0.00000000E+00  0.00000000E+00
  0.00000000E+00  0.00000000E+00  0.00000000E+00
  0.00000000E+00  0.00000000E+00  0.00000000E+00
  0.00000000E+00  0.00000000E+00  0.00000000E+00
  0.00000000E+00  0.00000000E+00  0.00000000E+00
  0.00000000E+00  0.00000000E+00  0.00000000E+00
  0.00000000E+00  0.00000000E+00  0.00000000E+00
  0.00000000E+00  0.00000000E+00  0.00000000E+00
  0.00000000E+00  0.00000000E+00  0.00000000E+00
  0.00000000E+00  0.00000000E+00  0.00000000E+00
  0.00000000E+00  0.00000000E+00  0.00000000E+00
  0.00000000E+00  0.00000000E+00  0.00000000E+00
  0.00000000E+00  0.00000000E+00  0.00000000E+00
  0.00000000E+00  0.00000000E+00  0.00000000E+00
  0.00000000E+00  0.00000000E+00  0.00000000E+00
  0.00000000E+00  0.00000000E+00  0.00000000E+00
  0.00000000E+00  0.00000000E+00  0.00000000E+00
  0.00000000E+00  0.00000000E+00  0.00000000E+00
  0.00000000E+00  0.00000000E+00  0.00000000E+00
  0.00000000E+00  0.00000000E+00  0.00000000E+00
  0.00000000E+00  0.00000000E+00  0.00000000E+00
  0.00000000E+00  0.00000000E+00  0.00000000E+00
  0.00000000E+00  0.00000000E+00  0.00000000E+00
  0.00000000E+00  0.00000000E+00  0.00000000E+00
  0.00000000E+00  0.00000000E+00  0.00000000E+00
  0.00000000E+00  0.00000000E+00  0.00000000E+00
  0.00000000E+00  0.00000000E+00  0.00000000E+00
  0.00000000E+00  0.00000000E+00  0.00000000E+00
  0.00000000E+00  0.00000000E+00  0.00000000E+00
  0.00000000E+00  0.00000000E+00  0.00000000E+00
  0.00000000E+00  0.00000000E+00  0.00000000E+00
  0.00000000E+00  0.00000000E+00  0.00000000E+00
  0.00000000E+00  0.00000000E+00  0.00000000E+00
  0.00000000E+00  0.00000000E+00  0.00000000E+00
  0.00000000E+00  0.00000000E+00  0.00000000E+00
  0.00000000E+00  0.00000000E+00  0.00000000E+00
  0.00000000E+00  0.00000000E+00  0.00000000E+00
  0.00000000E+00  0.00000000E+00  0.00000000E+00
  0.00000000E+00  0.00000000E+00  0.00000000E+00
  0.00000000E+00  0.00000000E+00  0.00000000E+00
  0.00000000E+00  0.00000000E+00  0.00000000E+00
  0.00000000E+00  0.00000000E+00  0.00000000E+00
  0.00000000E+00  0.00000000E+00  0.00000000E+00
  0.00000000E+00  0.00000000E+00  0.00000000E+00
  0.00000000E+00  0.00000000E+00  0.00000000E+00
  0.00000000E+00  0.00000000E+00  0.00000000E+00
  0.00000000E+00  0.00000000E+00  0.00000000E+00
  0.00000000E+00  0.00000000E+00  0.00000000E+00
  0.00000000E+00  0.00000000E+00  0.00000000E+00
  0.00000000E+00  0.00000000E+00  0.00000000E+00
  0.00000000E+00  0.00000000E+00  0.00000000E+00
  0.00000000E+00  0.00000000E+00  0.00000000E+00
  0.00000000E+00  0.00000000E+00  0.00000000E+00
  0.00000000E+00  0.00000000E+00  0.00000000E+00
  0.00000000E+00  0.00000000E+00  0.00000000E+00
  0.00000000E+00  0.00000000E+00  0.00000000E+00
  0.00000000E+00  0.00000000E+00  0.00000000E+00
  0.00000000E+00  0.00000000E+00  0.00000000E+00
  0.00000000E+00  0.00000000E+00  0.00000000E+00
  0.00000000E+00  0.00000000E+00  0.00000000E+00
  0.00000000E+00  0.00000000E+00  0.00000000E+00
  0.00000000E+00  0.00000000E+00  0.00000000E+00
  0.00000000E+00  0.00000000E+00  0.00000000E+00
  0.00000000E+00  0.00000000E+00  0.00000000E+00
  0.00000000E+00  0.00000000E+00  0.00000000E+00
  0.00000000E+00  0.00000000E+00  0.00000000E+00
  0.00000000E+00  0.00000000E+00  0.00000000E+00
  0.00000000E+00  0.00000000E+00  0.00000000E+00
  0.00000000E+00  0.00000000E+00  0.00000000E+00
  0.00000000E+00  0.00000000E+00  0.00000000E+00
  0.00000000E+00  0.00000000E+00  0.00000000E+00
  0.00000000E+00  0.00000000E+00  0.00000000E+00
  0.00000000E+00  0.00000000E+00  0.00000000E+00
  0.00000000E+00  0.00000000E+00  0.00000000E+00
  0.00000000E+00  0.00000000E+00  0.00000000E+00
  0.00000000E+00  0.00000000E+00  0.00000000E+00
  0.00000000E+00  0.00000000E+00  0.00000000E+00
  0.00000000E+00  0.00000000E+00  0.00000000E+00
  0.00000000E+00  0.00000000E+00  0.00000000E+00
  0.00000000E+00  0.00000000E+00  0.00000000E+00
  0.00000000E+00  0.00000000E+00  0.00000000E+00
  0.00000000E+00  0.00000000E+00  0.00000000E+00
  0.00000000E+00  0.00000000E+00  0.00000000E+00
  0.00000000E+00  0.00000000E+00  0.00000000E+00
  0.00000000E+00  0.00000000E+00  0.00000000E+00
  0.00000000E+00  0.00000000E+00  0.00000000E+00
  0.00000000E+00  0.00000000E+00  0.00000000E+00
  0.00000000E+00  0.00000000E+00  0.00000000E+00
  0.00000000E+00  0.00000000E+00  0.00000000E+00
  0.00000000E+00  0.00000000E+00  0.00000000E+00
  0.00000000E+00  0.00000000E+00  0.00000000E+00
  0.00000000E+00  0.00000000E+00  0.00000000E+00
  0.00000000E+00  0.00000000E+00  0.00000000E+00
  0.00000000E+00  0.00000000E+00  0.00000000E+00
  0.00000000E+00  0.00000000E+00  0.00000000E+00
  0.00000000E+00  0.00000000E+00  0.00000000E+00
  0.00000000E+00  0.00000000E+00  0.00000000E+00
  0.00000000E+00  0.00000000E+00  0.00000000E+00
  0.00000000E+00  0.00000000E+00  0.00000000E+00
  0.00000000E+00  0.00000000E+00  0.00000000E+00
  0.00000000E+00  0.00000000E+00  0.00000000E+00
  0.00000000E+00  0.00000000E+00  0.00000000E+00
  0.00000000E+00  0.00000000E+00  0.00000000E+00
  0.00000000E+00  0.00000000E+00  0.00000000E+00
  0.00000000E+00  0.00000000E+00  0.00000000E+00
  0.00000000E+00  0.00000000E+00  0.00000000E+00
  0.00000000E+00  0.00000000E+00  0.00000000E+00
  0.00000000E+00  0.00000000E+00  0.00000000E+00
  0.00000000E+00  0.00000000E+00  0.00000000E+00
  0.00000000E+00  0.00000000E+00  0.00000000E+00
  0.00000000E+00  0.00000000E+00  0.00000000E+00
  0.00000000E+00  0.00000000E+00  0.00000000E+00
  0.00000000E+00  0.00000000E+00  0.00000000E+00
  0.00000000E+00  0.00000000E+00  0.00000000E+00
  0.00000000E+00  0.00000000E+00  0.00000000E+00
  0.00000000E+00  0.00000000E+00  0.00000000E+00
