In O H                                  
   1.00000000000000     
    14.4942117030500004    0.0000000000000000    0.0000000000000000
    -7.2471058515250002   12.5523555426710001    0.0000000000000000
     0.0000000000000000    0.0000000000000000   26.8344742987830003
   In   O    H 
    48    72     1
Selective dynamics
Direct
  0.2830425064694416  0.0161422044278323  0.1064580108534438   T   T   T
  0.2442406457004613  0.2317085981010267  0.1026160968825936   T   T   T
  0.7382467282796499  0.2200099674826008  0.1055591324074586   T   T   T
  0.9929334305121899  0.2587635772220439  0.1021739991849398   T   T   T
  0.2710316986834513  0.5102054636432478  0.1021827766622689   T   T   T
  0.4872436893263070  0.7643861032022775  0.1049996672996313   T   T   T
  0.9988882494870733  0.0077351218265143  0.1119053696073711   T   T   T
  0.0133502217005050  0.5043350870477412  0.1110245880405082   T   T   T
  0.4951257007372723  0.4886515026507836  0.1116740880064084   T   T   T
  0.5027367873053287  0.0004636769371125  0.0985663084051258   T   T   T
  0.5157335637629866  0.2388763582616595  0.1111147653121540   T   T   T
  0.7239697807038074  0.4871834516871520  0.1197598236398805   T   T   T
  0.0156415095452896  0.7338976924871194  0.1205648667243534   T   T   T
  0.2637005295698201  0.7746515274617986  0.1097711407949517   T   T   T
  0.7694497692868965  0.7801788620972642  0.1207167719811046   T   T   T
  0.7281853325469297  0.9872111673842955  0.1102683776758240   T   T   T
  0.1578506589804157  0.0924017240072929  0.2121711112550917   T   T   T
  0.9398854653667569  0.3451826707257883  0.2113943555550088   T   T   T
  0.4102409374432263  0.5625658474530375  0.2119329038127719   T   T   T
  0.9028795944330343  0.5570307405376684  0.2148860819453275   T   T   T
  0.6602483276186765  0.5996291482918228  0.2131686596461161   T   T   T
  0.9458630664978521  0.8434431333196969  0.2148661810407078   T   T   T
  0.6696993617884334  0.3337209683809396  0.2200577501365497   T   T   T
  0.1699215620781494  0.8331210198343674  0.2207671608054185   T   T   T
  0.6685030696339703  0.8341287204023147  0.2202633840859292   T   T   T
  0.1690856868790688  0.3331937714630366  0.2202865620708545   T   T   T
  0.6804329583853318  0.0695005586024345  0.2246128201006907   T   T   T
  0.4359355298584824  0.1094529125829935  0.2257728857073482   T   T   T
  0.9287050891574242  0.1045092082229190  0.2289809294582850   T   T   T
  0.3986291596519521  0.3216345004441332  0.2289918205715085   T   T   T
  0.1797905425744193  0.5735565760192379  0.2275807197788796   T   T   T
  0.3935944933856675  0.8235292457269590  0.2228276234675592   T   T   T
  0.6158702562589532  0.1814451472135326  0.3206822074167782   T   T   T
  0.8232043850534455  0.4288376897761436  0.3296727414329034   T   T   T
  0.6159595741257385  0.6780145895803293  0.3255913328858422   T   T   T
  0.0757307626266898  0.8941217644034536  0.3294089151466573   T   T   T
  0.5701612497684219  0.8939866688772079  0.3199283202745893   T   T   T
  0.3246749412789810  0.9335213999772672  0.3213436002535028   T   T   T
  0.3252056371671321  0.1632509807751921  0.3295855549758832   T   T   T
  0.8435768652128444  0.1793337378783105  0.3291721998810876   T   T   T
  0.3315980615480603  0.6596496748763245  0.3281767669156881   T   T   T
  0.8374225805207195  0.6673412151484160  0.3406533622118795   T   T   T
  0.0680784294639909  0.1573364911451339  0.3385471402102027   T   T   T
  0.3461009669471689  0.4096717922000783  0.3380225017115310   T   T   T
  0.0922957896612698  0.4344809881360533  0.3380435943913933   T   T   T
  0.6008817532479261  0.4469576167493310  0.3342489413005183   T   T   T
  0.0547087298805994  0.6516227036882923  0.3346816588445622   T   T   T
  0.8519578818492582  0.9035077519238266  0.3346763037246783   T   T   T
  0.5879117391983485  0.1618102866101751  0.0692918855199381   T   T   T
  0.3408654759120082  0.9247930773110506  0.0691640782214211   T   T   T
  0.5789413581309832  0.9146181661487987  0.0687686054933708   T   T   T
  0.8323871792942731  0.1482386541848131  0.0827794848815471   T   T   T
  0.3549172373273956  0.1819720174635641  0.0834610257753710   T   T   T
  0.3212610794879571  0.6704523911212440  0.0825234049668075   T   T   T
  0.5687944094784496  0.4021606552894176  0.0886394671320930   T   T   T
  0.1011547905116772  0.6650054552889239  0.0883691841046793   T   T   T
  0.8384860983316091  0.9345049018118918  0.0888842349794862   T   T   T
  0.0766146537314134  0.1733629648736460  0.0872995926524374   T   T   T
  0.3294144551296048  0.4008440582291062  0.0874798731976197   T   T   T
  0.1022210169445180  0.4267854243644772  0.0873248447486774   T   T   T
  0.8915683319820915  0.5616697554810883  0.1208887054343804   T   T   T
  0.6753313669796794  0.6119929613451196  0.1225602214700356   T   T   T
  0.9415707274508496  0.8278826873367595  0.1223767185308231   T   T   T
  0.1623118405735051  0.0560779066380074  0.1305630703683344   T   T   T
  0.8988582989397595  0.3406088487869214  0.1297889060081975   T   T   T
  0.4470967429196068  0.6042394199633121  0.1304466361742344   T   T   T
  0.6884673178160438  0.3246478046218231  0.1398742061931033   T   T   T
  0.6411729549481260  0.8147418133897253  0.1402818001352940   T   T   T
  0.1784740552417095  0.8612766929179559  0.1406326203669033   T   T   T
  0.4295896077662498  0.0772621644636037  0.1484351983684423   T   T   T
  0.6534565394873707  0.0729824457634379  0.1475020668786524   T   T   T
  0.4254828260688731  0.8496775117832241  0.1464886188083960   T   T   T
  0.0132606199707706  0.2514536464618686  0.1818371957794363   T   T   T
  0.2516293186389775  0.2595664648540469  0.1823268291182808   T   T   T
  0.2442992380576598  0.4909029980107969  0.1821779523780107   T   T   T
  0.9828216772838138  0.0060018882410234  0.1924813358310780   T   T   T
  0.4968064986462793  0.4747686135119346  0.1923640358695020   T   T   T
  0.0278097005302925  0.5200075182033050  0.1915536614483166   T   T   T
  0.5049320588924218  0.2744191996135872  0.1980186974809395   T   T   T
  0.2291717935411226  0.7278446196682943  0.1972951216229734   T   T   T
  0.7740628478551187  0.9977850598401198  0.1986967774158072   T   T   T
  0.7349785992022992  0.5062103461995267  0.2003489099335088   T   T   T
  0.9965834625953683  0.7251907443153851  0.2013599771714244   T   T   T
  0.7768533119270093  0.7696292464055943  0.2016893477993442   T   T   T
  0.6045777721987383  0.1605116839462348  0.2399973725845557   T   T   T
  0.5599345374583643  0.9000543942631272  0.2401174547936530   T   T   T
  0.3452377405045142  0.9402563996579993  0.2410202641042663   T   T   T
  0.8340934492112081  0.3927312911792637  0.2430219495847920   T   T   T
  0.5641759160433392  0.6692120870585618  0.2438800252778380   T   T   T
  0.1106946830256708  0.9384867792791118  0.2434368271850976   T   T   T
  0.3107250163513980  0.1465880100309357  0.2490887515830567   T   T   T
  0.8420945752674900  0.1929965788155108  0.2486576761692177   T   T   T
  0.3590445517940336  0.6641695365319157  0.2497279674963492   T   T   T
  0.0951263769692839  0.1772920309455929  0.2591161380912994   T   T   T
  0.0871502755914305  0.4072311186122737  0.2586407054504654   T   T   T
  0.3252971723044704  0.4161510935404426  0.2589347832704613   T   T   T
  0.6876411203685409  0.5917569484449563  0.2907051542493557   T   T   T
  0.9090645090831938  0.5893303690206253  0.2925071824713605   T   T   T
  0.9130802223287637  0.8187202670277210  0.2925213667643489   T   T   T
  0.6503670899832245  0.3425140483532451  0.3003787755668089   T   T   T
  0.1633974588854079  0.8064073746274252  0.3012460002799896   T   T   T
  0.6892244555501947  0.8502656874402086  0.3026073417061370   T   T   T
  0.8900783383851979  0.0621147796706256  0.3107404246337057   T   T   T
  0.4398251438339369  0.3275499254525083  0.3112613731571896   T   T   T
  0.1714533194490768  0.6094040461346911  0.3084132138876222   T   T   T
  0.6652415411014220  0.0590014561739581  0.3206786776922134   T   T   T
  0.4479027730608387  0.1053134679655990  0.3201359099832490   T   T   T
  0.3999838310164558  0.8373601407813722  0.3259438015389552   T   T   T
  0.2371913624935146  0.2421693503465176  0.3538990285787352   T   T   T
  0.0090477514671352  0.2661360112492543  0.3537778969016344   T   T   T
  0.2628485993684209  0.4974610402397340  0.3541363368615256   T   T   T
  0.2380266402420166  0.0029108502705813  0.3525122604164908   T   T   T
  0.7710178801199252  0.2671378014067888  0.3524010251736751   T   T   T
  0.4984745482331360  0.7277103314655826  0.3582945619348397   T   T   T
  0.9839966149618139  0.4863111066388889  0.3586456433801893   T   T   T
  0.5079002114531959  0.5227517216039613  0.3564769632921112   T   T   T
  0.0176648511016968  0.9969950810662374  0.3580387497966228   T   T   T
  0.7504242206124854  0.5064581448558981  0.3711573730599508   T   T   T
  0.7596583723723632  0.7523693924327989  0.3702574387266843   T   T   T
  0.9979558823366070  0.7445294549043102  0.3709056444670317   T   T   T
  0.4992532588108450  0.7200550368119242  0.3944548563867848   T   T   T
 
  0.00000000E+00  0.00000000E+00  0.00000000E+00
  0.00000000E+00  0.00000000E+00  0.00000000E+00
  0.00000000E+00  0.00000000E+00  0.00000000E+00
  0.00000000E+00  0.00000000E+00  0.00000000E+00
  0.00000000E+00  0.00000000E+00  0.00000000E+00
  0.00000000E+00  0.00000000E+00  0.00000000E+00
  0.00000000E+00  0.00000000E+00  0.00000000E+00
  0.00000000E+00  0.00000000E+00  0.00000000E+00
  0.00000000E+00  0.00000000E+00  0.00000000E+00
  0.00000000E+00  0.00000000E+00  0.00000000E+00
  0.00000000E+00  0.00000000E+00  0.00000000E+00
  0.00000000E+00  0.00000000E+00  0.00000000E+00
  0.00000000E+00  0.00000000E+00  0.00000000E+00
  0.00000000E+00  0.00000000E+00  0.00000000E+00
  0.00000000E+00  0.00000000E+00  0.00000000E+00
  0.00000000E+00  0.00000000E+00  0.00000000E+00
  0.00000000E+00  0.00000000E+00  0.00000000E+00
  0.00000000E+00  0.00000000E+00  0.00000000E+00
  0.00000000E+00  0.00000000E+00  0.00000000E+00
  0.00000000E+00  0.00000000E+00  0.00000000E+00
  0.00000000E+00  0.00000000E+00  0.00000000E+00
  0.00000000E+00  0.00000000E+00  0.00000000E+00
  0.00000000E+00  0.00000000E+00  0.00000000E+00
  0.00000000E+00  0.00000000E+00  0.00000000E+00
  0.00000000E+00  0.00000000E+00  0.00000000E+00
  0.00000000E+00  0.00000000E+00  0.00000000E+00
  0.00000000E+00  0.00000000E+00  0.00000000E+00
  0.00000000E+00  0.00000000E+00  0.00000000E+00
  0.00000000E+00  0.00000000E+00  0.00000000E+00
  0.00000000E+00  0.00000000E+00  0.00000000E+00
  0.00000000E+00  0.00000000E+00  0.00000000E+00
  0.00000000E+00  0.00000000E+00  0.00000000E+00
  0.00000000E+00  0.00000000E+00  0.00000000E+00
  0.00000000E+00  0.00000000E+00  0.00000000E+00
  0.00000000E+00  0.00000000E+00  0.00000000E+00
  0.00000000E+00  0.00000000E+00  0.00000000E+00
  0.00000000E+00  0.00000000E+00  0.00000000E+00
  0.00000000E+00  0.00000000E+00  0.00000000E+00
  0.00000000E+00  0.00000000E+00  0.00000000E+00
  0.00000000E+00  0.00000000E+00  0.00000000E+00
  0.00000000E+00  0.00000000E+00  0.00000000E+00
  0.00000000E+00  0.00000000E+00  0.00000000E+00
  0.00000000E+00  0.00000000E+00  0.00000000E+00
  0.00000000E+00  0.00000000E+00  0.00000000E+00
  0.00000000E+00  0.00000000E+00  0.00000000E+00
  0.00000000E+00  0.00000000E+00  0.00000000E+00
  0.00000000E+00  0.00000000E+00  0.00000000E+00
  0.00000000E+00  0.00000000E+00  0.00000000E+00
  0.00000000E+00  0.00000000E+00  0.00000000E+00
  0.00000000E+00  0.00000000E+00  0.00000000E+00
  0.00000000E+00  0.00000000E+00  0.00000000E+00
  0.00000000E+00  0.00000000E+00  0.00000000E+00
  0.00000000E+00  0.00000000E+00  0.00000000E+00
  0.00000000E+00  0.00000000E+00  0.00000000E+00
  0.00000000E+00  0.00000000E+00  0.00000000E+00
  0.00000000E+00  0.00000000E+00  0.00000000E+00
  0.00000000E+00  0.00000000E+00  0.00000000E+00
  0.00000000E+00  0.00000000E+00  0.00000000E+00
  0.00000000E+00  0.00000000E+00  0.00000000E+00
  0.00000000E+00  0.00000000E+00  0.00000000E+00
  0.00000000E+00  0.00000000E+00  0.00000000E+00
  0.00000000E+00  0.00000000E+00  0.00000000E+00
  0.00000000E+00  0.00000000E+00  0.00000000E+00
  0.00000000E+00  0.00000000E+00  0.00000000E+00
  0.00000000E+00  0.00000000E+00  0.00000000E+00
  0.00000000E+00  0.00000000E+00  0.00000000E+00
  0.00000000E+00  0.00000000E+00  0.00000000E+00
  0.00000000E+00  0.00000000E+00  0.00000000E+00
  0.00000000E+00  0.00000000E+00  0.00000000E+00
  0.00000000E+00  0.00000000E+00  0.00000000E+00
  0.00000000E+00  0.00000000E+00  0.00000000E+00
  0.00000000E+00  0.00000000E+00  0.00000000E+00
  0.00000000E+00  0.00000000E+00  0.00000000E+00
  0.00000000E+00  0.00000000E+00  0.00000000E+00
  0.00000000E+00  0.00000000E+00  0.00000000E+00
  0.00000000E+00  0.00000000E+00  0.00000000E+00
  0.00000000E+00  0.00000000E+00  0.00000000E+00
  0.00000000E+00  0.00000000E+00  0.00000000E+00
  0.00000000E+00  0.00000000E+00  0.00000000E+00
  0.00000000E+00  0.00000000E+00  0.00000000E+00
  0.00000000E+00  0.00000000E+00  0.00000000E+00
  0.00000000E+00  0.00000000E+00  0.00000000E+00
  0.00000000E+00  0.00000000E+00  0.00000000E+00
  0.00000000E+00  0.00000000E+00  0.00000000E+00
  0.00000000E+00  0.00000000E+00  0.00000000E+00
  0.00000000E+00  0.00000000E+00  0.00000000E+00
  0.00000000E+00  0.00000000E+00  0.00000000E+00
  0.00000000E+00  0.00000000E+00  0.00000000E+00
  0.00000000E+00  0.00000000E+00  0.00000000E+00
  0.00000000E+00  0.00000000E+00  0.00000000E+00
  0.00000000E+00  0.00000000E+00  0.00000000E+00
  0.00000000E+00  0.00000000E+00  0.00000000E+00
  0.00000000E+00  0.00000000E+00  0.00000000E+00
  0.00000000E+00  0.00000000E+00  0.00000000E+00
  0.00000000E+00  0.00000000E+00  0.00000000E+00
  0.00000000E+00  0.00000000E+00  0.00000000E+00
  0.00000000E+00  0.00000000E+00  0.00000000E+00
  0.00000000E+00  0.00000000E+00  0.00000000E+00
  0.00000000E+00  0.00000000E+00  0.00000000E+00
  0.00000000E+00  0.00000000E+00  0.00000000E+00
  0.00000000E+00  0.00000000E+00  0.00000000E+00
  0.00000000E+00  0.00000000E+00  0.00000000E+00
  0.00000000E+00  0.00000000E+00  0.00000000E+00
  0.00000000E+00  0.00000000E+00  0.00000000E+00
  0.00000000E+00  0.00000000E+00  0.00000000E+00
  0.00000000E+00  0.00000000E+00  0.00000000E+00
  0.00000000E+00  0.00000000E+00  0.00000000E+00
  0.00000000E+00  0.00000000E+00  0.00000000E+00
  0.00000000E+00  0.00000000E+00  0.00000000E+00
  0.00000000E+00  0.00000000E+00  0.00000000E+00
  0.00000000E+00  0.00000000E+00  0.00000000E+00
  0.00000000E+00  0.00000000E+00  0.00000000E+00
  0.00000000E+00  0.00000000E+00  0.00000000E+00
  0.00000000E+00  0.00000000E+00  0.00000000E+00
  0.00000000E+00  0.00000000E+00  0.00000000E+00
  0.00000000E+00  0.00000000E+00  0.00000000E+00
  0.00000000E+00  0.00000000E+00  0.00000000E+00
  0.00000000E+00  0.00000000E+00  0.00000000E+00
  0.00000000E+00  0.00000000E+00  0.00000000E+00
  0.00000000E+00  0.00000000E+00  0.00000000E+00
  0.00000000E+00  0.00000000E+00  0.00000000E+00
