In O H                                  
   1.00000000000000     
    14.4942117030500004    0.0000000000000000    0.0000000000000000
    -7.2471058515250002   12.5523555426710001    0.0000000000000000
     0.0000000000000000    0.0000000000000000   26.8344742987830003
   In   O    H 
    48    72     1
Selective dynamics
Direct
  0.2829959995770466  0.0161662726576263  0.1062973531392568   T   T   T
  0.2441050568765891  0.2317952564793706  0.1021733188653718   T   T   T
  0.7383092194695733  0.2200865716884666  0.1056583485440888   T   T   T
  0.9927511188628603  0.2588888497986060  0.1019860290246145   T   T   T
  0.2708274469370311  0.5102619508490738  0.1019258530917450   T   T   T
  0.4868649595731545  0.7651059052273659  0.1054907299414825   T   T   T
  0.9988733785708995  0.0077698630105377  0.1119004400289424   T   T   T
  0.0139669561405273  0.5045088007691393  0.1116469867359047   T   T   T
  0.4951148246352114  0.4889814825149564  0.1111180800730981   T   T   T
  0.5027662739904446  0.0005244618275164  0.0993101970113909   T   T   T
  0.5156293245040106  0.2389286329050481  0.1105599282396716   T   T   T
  0.7234612260997828  0.4875389275612663  0.1206124961983458   T   T   T
  0.0156567711747618  0.7339703949720224  0.1206106839172032   T   T   T
  0.2639635041518438  0.7748749885701559  0.1107952398304220   T   T   T
  0.7697394945038138  0.7799071830571032  0.1204257414099939   T   T   T
  0.7285793816077684  0.9876481474710129  0.1101886869117758   T   T   T
  0.1580353203861574  0.0929635410673181  0.2122290351659169   T   T   T
  0.9405088353953375  0.3453773454476369  0.2116795724256895   T   T   T
  0.4103371495170711  0.5639620078176296  0.2110177067780271   T   T   T
  0.9031081513991114  0.5574693236188180  0.2147914345803741   T   T   T
  0.6588741079500089  0.5996866428435673  0.2138138165372905   T   T   T
  0.9460021239016316  0.8435607088054071  0.2148922733942431   T   T   T
  0.6702144548332244  0.3323317238003339  0.2197506417523030   T   T   T
  0.1697750563028625  0.8338374742718435  0.2205328269839390   T   T   T
  0.6701128484023678  0.8356123171892166  0.2191787168470159   T   T   T
  0.1690990145096209  0.3336684920515209  0.2195956446415190   T   T   T
  0.6798688348769597  0.0677062965130220  0.2249149517218905   T   T   T
  0.4360588779162756  0.1101573284874677  0.2255745967365716   T   T   T
  0.9288914595236063  0.1050056304833227  0.2286911354171191   T   T   T
  0.3987447877035314  0.3225965845786211  0.2282050501724334   T   T   T
  0.1812497118874716  0.5747073988804061  0.2287902908576656   T   T   T
  0.3935750014847105  0.8242206107221711  0.2249029835190179   T   T   T
  0.6156352354483374  0.1776168226042074  0.3206501190470274   T   T   T
  0.8244003429749973  0.4271510804156297  0.3289236222703614   T   T   T
  0.6158709604922681  0.6879839989885442  0.3250907848613005   T   T   T
  0.0751650400173692  0.8920282977625915  0.3295597684678635   T   T   T
  0.5693079837551888  0.8883959220282949  0.3204132596926643   T   T   T
  0.3237189021581124  0.9330118741484348  0.3209166619707242   T   T   T
  0.3262303899932449  0.1620107607751261  0.3297995370885921   T   T   T
  0.8436640799854723  0.1783069082059782  0.3292236028102600   T   T   T
  0.3407758656265701  0.6606757850229208  0.3287542248452725   T   T   T
  0.8362893262374177  0.6666008843762457  0.3409865561009913   T   T   T
  0.0659529973351842  0.1551614996185119  0.3382221955593534   T   T   T
  0.3349531561274835  0.4003678243513995  0.3375191836988981   T   T   T
  0.0942797762502453  0.4352415054319773  0.3382861908082839   T   T   T
  0.6030381642715984  0.4420347232761126  0.3333962969425174   T   T   T
  0.0556319271304444  0.6510616421274216  0.3345211662186576   T   T   T
  0.8533697295300748  0.9031467890113652  0.3342102690434526   T   T   T
  0.5880933124458729  0.1619293485471499  0.0693622228163839   T   T   T
  0.3411692751320580  0.9246253854094753  0.0696673286989667   T   T   T
  0.5787191127806210  0.9150087151497963  0.0691685371226816   T   T   T
  0.8324207432825731  0.1486936778286345  0.0824870839499808   T   T   T
  0.3546040142641196  0.1818953935794728  0.0829933947967764   T   T   T
  0.3209057448640976  0.6708099839313990  0.0829394941160767   T   T   T
  0.5687606351805837  0.4021789385655445  0.0888046361067250   T   T   T
  0.1009491112009620  0.6647328363813204  0.0888011416654501   T   T   T
  0.8388885413779757  0.9346132794281404  0.0887052472533692   T   T   T
  0.0764755323044509  0.1734225412009208  0.0872614534430420   T   T   T
  0.3293520477711047  0.4009154894888756  0.0871079436909705   T   T   T
  0.1019806991518067  0.4266979551719912  0.0871521165657044   T   T   T
  0.8912361301093047  0.5614920990529083  0.1222393990956924   T   T   T
  0.6750874228077867  0.6117136242883584  0.1223406633640921   T   T   T
  0.9417644527998412  0.8279946197370540  0.1221617532038246   T   T   T
  0.1625220339277146  0.0564745906901468  0.1306465535211727   T   T   T
  0.8989104100279010  0.3407843278665521  0.1301425734749248   T   T   T
  0.4471644538280715  0.6044764360657450  0.1297462805047601   T   T   T
  0.6886003064904420  0.3251045833407928  0.1398763582046463   T   T   T
  0.6418360281514623  0.8145923120405513  0.1395868666220394   T   T   T
  0.1780427776304885  0.8615296338139579  0.1404410893817649   T   T   T
  0.4296846699165507  0.0786498631270542  0.1482769857515100   T   T   T
  0.6535762576963412  0.0735335341492224  0.1476759655995927   T   T   T
  0.4252479500509466  0.8496957641091623  0.1477804857478040   T   T   T
  0.0132702284978951  0.2516325026951071  0.1817178571401273   T   T   T
  0.2518642268256564  0.2599272725696297  0.1819358816591456   T   T   T
  0.2439070139250952  0.4900353949494631  0.1818126784898994   T   T   T
  0.9829614310302706  0.0061776280257178  0.1925729691240049   T   T   T
  0.4960504305674313  0.4751684074622595  0.1919478584280286   T   T   T
  0.0287539196515200  0.5203503657246195  0.1922605772168351   T   T   T
  0.5054474459442583  0.2752114962387227  0.1985563345298180   T   T   T
  0.2289776702749541  0.7285337752726686  0.1980899497163280   T   T   T
  0.7755604929011168  0.9993509275423009  0.1972438441226623   T   T   T
  0.7338902159945284  0.5064042852267158  0.2016507423582167   T   T   T
  0.9966295498725247  0.7256467775667396  0.2013828342484724   T   T   T
  0.7771928136653437  0.7684846507831491  0.2014541793316663   T   T   T
  0.6040674041732411  0.1592547577525079  0.2399647479048938   T   T   T
  0.5612610103708011  0.8992207442470092  0.2399249044957085   T   T   T
  0.3435858692462745  0.9422298853950715  0.2404868704465425   T   T   T
  0.8345270831819939  0.3929015366278048  0.2430151928801318   T   T   T
  0.5645091446107263  0.6706015303691034  0.2425985313030657   T   T   T
  0.1108199295341719  0.9395007287346370  0.2435653914135278   T   T   T
  0.3119128796684964  0.1497049243301619  0.2497034841176399   T   T   T
  0.8419179143200405  0.1928620981750326  0.2487747104801278   T   T   T
  0.3567636174283150  0.6617805229244005  0.2485731683992075   T   T   T
  0.0963377149950380  0.1785259135630985  0.2590205500683397   T   T   T
  0.0881000446358064  0.4077979377701717  0.2588730374141723   T   T   T
  0.3260924180427732  0.4162017360117842  0.2589893880245919   T   T   T
  0.6748094711014773  0.5880572650668329  0.2931390934268964   T   T   T
  0.9076419983341759  0.5886125193343524  0.2926940815974997   T   T   T
  0.9127535200450816  0.8161516582790447  0.2924516268386423   T   T   T
  0.6506471968377080  0.3391967669100944  0.3000044771166500   T   T   T
  0.1612583914521807  0.8051966061959461  0.3007844775111801   T   T   T
  0.6995613119620436  0.8568435460494743  0.2996327868790460   T   T   T
  0.8928832220139544  0.0637300369508421  0.3106442661333971   T   T   T
  0.4404485842861522  0.3335996724481821  0.3132314066760529   T   T   T
  0.1768918644236710  0.6100837423048791  0.3111148343815137   T   T   T
  0.6643477787157904  0.0554566223736515  0.3203846129162821   T   T   T
  0.4477783001038484  0.1071496239711031  0.3203375425054149   T   T   T
  0.3979658112329621  0.8390632261819609  0.3211398506122828   T   T   T
  0.2349395988428847  0.2359753119538885  0.3548557691888000   T   T   T
  0.0100600983956797  0.2665731254729173  0.3539616713963437   T   T   T
  0.2636706298432116  0.4938834827458132  0.3547507828244179   T   T   T
  0.2376838123259121  0.0015414221249732  0.3525632397257585   T   T   T
  0.7706468445329800  0.2653543817558729  0.3524430664764160   T   T   T
  0.5022236473193535  0.7307627769508190  0.3512584435892145   T   T   T
  0.9842573580261404  0.4857504556983321  0.3578221977111504   T   T   T
  0.5032444378317338  0.5193396774325570  0.3652638758461521   T   T   T
  0.0174734750697312  0.9952323047587573  0.3580127554903527   T   T   T
  0.7498168793642032  0.5046830810476681  0.3709399761491250   T   T   T
  0.7586379423915884  0.7512503405592366  0.3701141370433785   T   T   T
  0.9969991958116556  0.7424085002029834  0.3712265094975924   T   T   T
  0.5069247261301854  0.5380532938343200  0.4004651651728789   T   T   T
 
  0.00000000E+00  0.00000000E+00  0.00000000E+00
  0.00000000E+00  0.00000000E+00  0.00000000E+00
  0.00000000E+00  0.00000000E+00  0.00000000E+00
  0.00000000E+00  0.00000000E+00  0.00000000E+00
  0.00000000E+00  0.00000000E+00  0.00000000E+00
  0.00000000E+00  0.00000000E+00  0.00000000E+00
  0.00000000E+00  0.00000000E+00  0.00000000E+00
  0.00000000E+00  0.00000000E+00  0.00000000E+00
  0.00000000E+00  0.00000000E+00  0.00000000E+00
  0.00000000E+00  0.00000000E+00  0.00000000E+00
  0.00000000E+00  0.00000000E+00  0.00000000E+00
  0.00000000E+00  0.00000000E+00  0.00000000E+00
  0.00000000E+00  0.00000000E+00  0.00000000E+00
  0.00000000E+00  0.00000000E+00  0.00000000E+00
  0.00000000E+00  0.00000000E+00  0.00000000E+00
  0.00000000E+00  0.00000000E+00  0.00000000E+00
  0.00000000E+00  0.00000000E+00  0.00000000E+00
  0.00000000E+00  0.00000000E+00  0.00000000E+00
  0.00000000E+00  0.00000000E+00  0.00000000E+00
  0.00000000E+00  0.00000000E+00  0.00000000E+00
  0.00000000E+00  0.00000000E+00  0.00000000E+00
  0.00000000E+00  0.00000000E+00  0.00000000E+00
  0.00000000E+00  0.00000000E+00  0.00000000E+00
  0.00000000E+00  0.00000000E+00  0.00000000E+00
  0.00000000E+00  0.00000000E+00  0.00000000E+00
  0.00000000E+00  0.00000000E+00  0.00000000E+00
  0.00000000E+00  0.00000000E+00  0.00000000E+00
  0.00000000E+00  0.00000000E+00  0.00000000E+00
  0.00000000E+00  0.00000000E+00  0.00000000E+00
  0.00000000E+00  0.00000000E+00  0.00000000E+00
  0.00000000E+00  0.00000000E+00  0.00000000E+00
  0.00000000E+00  0.00000000E+00  0.00000000E+00
  0.00000000E+00  0.00000000E+00  0.00000000E+00
  0.00000000E+00  0.00000000E+00  0.00000000E+00
  0.00000000E+00  0.00000000E+00  0.00000000E+00
  0.00000000E+00  0.00000000E+00  0.00000000E+00
  0.00000000E+00  0.00000000E+00  0.00000000E+00
  0.00000000E+00  0.00000000E+00  0.00000000E+00
  0.00000000E+00  0.00000000E+00  0.00000000E+00
  0.00000000E+00  0.00000000E+00  0.00000000E+00
  0.00000000E+00  0.00000000E+00  0.00000000E+00
  0.00000000E+00  0.00000000E+00  0.00000000E+00
  0.00000000E+00  0.00000000E+00  0.00000000E+00
  0.00000000E+00  0.00000000E+00  0.00000000E+00
  0.00000000E+00  0.00000000E+00  0.00000000E+00
  0.00000000E+00  0.00000000E+00  0.00000000E+00
  0.00000000E+00  0.00000000E+00  0.00000000E+00
  0.00000000E+00  0.00000000E+00  0.00000000E+00
  0.00000000E+00  0.00000000E+00  0.00000000E+00
  0.00000000E+00  0.00000000E+00  0.00000000E+00
  0.00000000E+00  0.00000000E+00  0.00000000E+00
  0.00000000E+00  0.00000000E+00  0.00000000E+00
  0.00000000E+00  0.00000000E+00  0.00000000E+00
  0.00000000E+00  0.00000000E+00  0.00000000E+00
  0.00000000E+00  0.00000000E+00  0.00000000E+00
  0.00000000E+00  0.00000000E+00  0.00000000E+00
  0.00000000E+00  0.00000000E+00  0.00000000E+00
  0.00000000E+00  0.00000000E+00  0.00000000E+00
  0.00000000E+00  0.00000000E+00  0.00000000E+00
  0.00000000E+00  0.00000000E+00  0.00000000E+00
  0.00000000E+00  0.00000000E+00  0.00000000E+00
  0.00000000E+00  0.00000000E+00  0.00000000E+00
  0.00000000E+00  0.00000000E+00  0.00000000E+00
  0.00000000E+00  0.00000000E+00  0.00000000E+00
  0.00000000E+00  0.00000000E+00  0.00000000E+00
  0.00000000E+00  0.00000000E+00  0.00000000E+00
  0.00000000E+00  0.00000000E+00  0.00000000E+00
  0.00000000E+00  0.00000000E+00  0.00000000E+00
  0.00000000E+00  0.00000000E+00  0.00000000E+00
  0.00000000E+00  0.00000000E+00  0.00000000E+00
  0.00000000E+00  0.00000000E+00  0.00000000E+00
  0.00000000E+00  0.00000000E+00  0.00000000E+00
  0.00000000E+00  0.00000000E+00  0.00000000E+00
  0.00000000E+00  0.00000000E+00  0.00000000E+00
  0.00000000E+00  0.00000000E+00  0.00000000E+00
  0.00000000E+00  0.00000000E+00  0.00000000E+00
  0.00000000E+00  0.00000000E+00  0.00000000E+00
  0.00000000E+00  0.00000000E+00  0.00000000E+00
  0.00000000E+00  0.00000000E+00  0.00000000E+00
  0.00000000E+00  0.00000000E+00  0.00000000E+00
  0.00000000E+00  0.00000000E+00  0.00000000E+00
  0.00000000E+00  0.00000000E+00  0.00000000E+00
  0.00000000E+00  0.00000000E+00  0.00000000E+00
  0.00000000E+00  0.00000000E+00  0.00000000E+00
  0.00000000E+00  0.00000000E+00  0.00000000E+00
  0.00000000E+00  0.00000000E+00  0.00000000E+00
  0.00000000E+00  0.00000000E+00  0.00000000E+00
  0.00000000E+00  0.00000000E+00  0.00000000E+00
  0.00000000E+00  0.00000000E+00  0.00000000E+00
  0.00000000E+00  0.00000000E+00  0.00000000E+00
  0.00000000E+00  0.00000000E+00  0.00000000E+00
  0.00000000E+00  0.00000000E+00  0.00000000E+00
  0.00000000E+00  0.00000000E+00  0.00000000E+00
  0.00000000E+00  0.00000000E+00  0.00000000E+00
  0.00000000E+00  0.00000000E+00  0.00000000E+00
  0.00000000E+00  0.00000000E+00  0.00000000E+00
  0.00000000E+00  0.00000000E+00  0.00000000E+00
  0.00000000E+00  0.00000000E+00  0.00000000E+00
  0.00000000E+00  0.00000000E+00  0.00000000E+00
  0.00000000E+00  0.00000000E+00  0.00000000E+00
  0.00000000E+00  0.00000000E+00  0.00000000E+00
  0.00000000E+00  0.00000000E+00  0.00000000E+00
  0.00000000E+00  0.00000000E+00  0.00000000E+00
  0.00000000E+00  0.00000000E+00  0.00000000E+00
  0.00000000E+00  0.00000000E+00  0.00000000E+00
  0.00000000E+00  0.00000000E+00  0.00000000E+00
  0.00000000E+00  0.00000000E+00  0.00000000E+00
  0.00000000E+00  0.00000000E+00  0.00000000E+00
  0.00000000E+00  0.00000000E+00  0.00000000E+00
  0.00000000E+00  0.00000000E+00  0.00000000E+00
  0.00000000E+00  0.00000000E+00  0.00000000E+00
  0.00000000E+00  0.00000000E+00  0.00000000E+00
  0.00000000E+00  0.00000000E+00  0.00000000E+00
  0.00000000E+00  0.00000000E+00  0.00000000E+00
  0.00000000E+00  0.00000000E+00  0.00000000E+00
  0.00000000E+00  0.00000000E+00  0.00000000E+00
  0.00000000E+00  0.00000000E+00  0.00000000E+00
  0.00000000E+00  0.00000000E+00  0.00000000E+00
  0.00000000E+00  0.00000000E+00  0.00000000E+00
  0.00000000E+00  0.00000000E+00  0.00000000E+00
  0.00000000E+00  0.00000000E+00  0.00000000E+00
