In O H                                  
   1.00000000000000     
    14.4942117030500004    0.0000000000000000    0.0000000000000000
    -7.2471058515250002   12.5523555426710001    0.0000000000000000
     0.0000000000000000    0.0000000000000000   26.8344742987830003
   In   O    H 
    48    72     1
Selective dynamics
Direct
  0.2832668663963454  0.0164333551759413  0.1055099781856492   T   T   T
  0.2444591699752920  0.2322647657515600  0.1021497709014409   T   T   T
  0.7388135894181318  0.2208027957687883  0.1048994586118360   T   T   T
  0.9930783239382834  0.2589108581180442  0.1022307306195385   T   T   T
  0.2712731213648854  0.5103847529219765  0.1026588483245732   T   T   T
  0.4867491734349502  0.7647595033789053  0.1065277388468584   T   T   T
  0.9988577376006283  0.0069948882336802  0.1109425924686072   T   T   T
  0.0144303926511649  0.5045565982085513  0.1117176020500350   T   T   T
  0.4954052974476769  0.4891643824820857  0.1120115662766052   T   T   T
  0.5025954047888409  0.0001932182517593  0.0981816843449555   T   T   T
  0.5161595907452644  0.2390555943676790  0.1101575790915569   T   T   T
  0.7229986493811792  0.4873671692034110  0.1207620310966277   T   T   T
  0.0160324243065703  0.7349159585237005  0.1197544899732731   T   T   T
  0.2642310379150983  0.7750327288766777  0.1111247686360477   T   T   T
  0.7691150515122814  0.7798234632313492  0.1206919230496206   T   T   T
  0.7283103182505932  0.9868716367341284  0.1094958327986696   T   T   T
  0.1580334509060297  0.0927267071390538  0.2113558043337458   T   T   T
  0.9404252714342821  0.3456732388283363  0.2119697374605861   T   T   T
  0.4106530669602066  0.5634705400710802  0.2122418502864366   T   T   T
  0.9033373227448027  0.5586497427887276  0.2132730773408398   T   T   T
  0.6596948067127575  0.6005212023988844  0.2150372833771317   T   T   T
  0.9460870176341245  0.8438327642638013  0.2149941584536088   T   T   T
  0.6689611433208436  0.3322753537443622  0.2202977145543633   T   T   T
  0.1694482067934707  0.8340555642701571  0.2200624024303117   T   T   T
  0.6698928166864605  0.8349581635559532  0.2208417321113458   T   T   T
  0.1699052623570152  0.3338724920557073  0.2203096332550502   T   T   T
  0.6796274401416444  0.0681877011179616  0.2224484483139329   T   T   T
  0.4336732104129101  0.1089765577601437  0.2244535760053626   T   T   T
  0.9295426896267891  0.1042001204398038  0.2275532712227129   T   T   T
  0.3986000123596016  0.3221680368104214  0.2289556999328734   T   T   T
  0.1814351270086506  0.5751441323234568  0.2289598241194597   T   T   T
  0.3938011916140746  0.8248471134897988  0.2256865121751380   T   T   T
  0.6090480368365320  0.1739974471059513  0.3200723440315386   T   T   T
  0.8249595730052151  0.4359525656793891  0.3256359406627404   T   T   T
  0.6090749125386776  0.6797358784858933  0.3294842632594992   T   T   T
  0.0743335147607340  0.8922632606053539  0.3297553941980454   T   T   T
  0.5695258470169304  0.8894343925864232  0.3214943298404763   T   T   T
  0.3216532541707094  0.9325380666007584  0.3206877325075845   T   T   T
  0.3239144018295684  0.1622386469927419  0.3291523253550858   T   T   T
  0.8431873045369527  0.1697414039366281  0.3282405349283685   T   T   T
  0.3398658543855481  0.6600379828622251  0.3294978379795959   T   T   T
  0.8357784246599846  0.6680989653512281  0.3408370688027227   T   T   T
  0.0686450603383375  0.1558079952519196  0.3380161785224519   T   T   T
  0.3457425381898049  0.4087083842378768  0.3385315077431009   T   T   T
  0.0933280158352991  0.4341963275078621  0.3379676888859574   T   T   T
  0.5995741337553592  0.4465398832930492  0.3346670261083471   T   T   T
  0.0560881667020641  0.6517976979452564  0.3341543317855828   T   T   T
  0.8515384861881391  0.9010960112568875  0.3345600611429193   T   T   T
  0.5886214502316020  0.1623734534525943  0.0685302874055748   T   T   T
  0.3411544032163494  0.9241509227008844  0.0690820528153668   T   T   T
  0.5781565011774464  0.9136361331945875  0.0688959720221873   T   T   T
  0.8327795062156760  0.1487982894782174  0.0825011979154327   T   T   T
  0.3551311747693394  0.1823926727646135  0.0827782041723888   T   T   T
  0.3209464996969809  0.6709193914473688  0.0836125055196234   T   T   T
  0.5687924547577567  0.4021878867203879  0.0888612060804140   T   T   T
  0.1008842527607463  0.6646943837510836  0.0886523450085915   T   T   T
  0.8381789178943134  0.9340431216787299  0.0882657031403002   T   T   T
  0.0764143651674596  0.1734401945339385  0.0872837977576260   T   T   T
  0.3298466633427657  0.4013470879923148  0.0872873786675200   T   T   T
  0.1021807259756607  0.4266206903540791  0.0874856015908699   T   T   T
  0.8911188871763281  0.5614393024160458  0.1225183863471580   T   T   T
  0.6752107299739313  0.6117904555626678  0.1225467788325073   T   T   T
  0.9414079305847196  0.8279294965327870  0.1207692213258392   T   T   T
  0.1626737511424041  0.0564159753087700  0.1297245902857283   T   T   T
  0.8988187846129747  0.3408563192722819  0.1304982852277218   T   T   T
  0.4468583431060738  0.6041697782791590  0.1306538327884365   T   T   T
  0.6884729217357619  0.3243877000391035  0.1402363106264260   T   T   T
  0.6417343418885016  0.8152776764283139  0.1406711118721339   T   T   T
  0.1786136686713554  0.8619670681240471  0.1398507070861633   T   T   T
  0.4303434578441719  0.0786243811380434  0.1473276883061766   T   T   T
  0.6532315008808824  0.0734782247223504  0.1461803004140519   T   T   T
  0.4259513769817534  0.8507080931468191  0.1483593408389231   T   T   T
  0.0121551186768838  0.2513786961889739  0.1822176628035939   T   T   T
  0.2518068897283496  0.2599130000861335  0.1818008828343349   T   T   T
  0.2434552533326298  0.4900795603663591  0.1823609736294156   T   T   T
  0.9831693825200849  0.0058127504700869  0.1914923425521049   T   T   T
  0.4971675049244310  0.4748583946552168  0.1925500331489465   T   T   T
  0.0282550500681826  0.5201527406556082  0.1924166208313652   T   T   T
  0.5054115279584882  0.2742981969496605  0.1986819819471768   T   T   T
  0.2288933355179670  0.7287694625731476  0.1979788445994956   T   T   T
  0.7753967896243837  0.9994480384943660  0.1971730029654040   T   T   T
  0.7334307395421419  0.5051842881586761  0.2016695653558152   T   T   T
  0.9969054913459344  0.7268698985170386  0.2003131713697340   T   T   T
  0.7779471859404091  0.7695998042956065  0.2014434201140567   T   T   T
  0.6030146091391896  0.1576494502873533  0.2401823012153710   T   T   T
  0.5630148688315225  0.9034610441944857  0.2411461086627871   T   T   T
  0.3425789952726176  0.9422028643078936  0.2400426764212086   T   T   T
  0.8337831531614601  0.3929893541292291  0.2438933730931238   T   T   T
  0.5646084085010432  0.6702477014889632  0.2434788625080153   T   T   T
  0.1103677502810091  0.9393936152737044  0.2430078282436772   T   T   T
  0.3101551552588672  0.1470447783938433  0.2486212154103614   T   T   T
  0.8386357578598639  0.1927535563493272  0.2497634489610197   T   T   T
  0.3565843421270445  0.6623834251227940  0.2490156339533317   T   T   T
  0.0959407693685014  0.1778707649736713  0.2586285411918414   T   T   T
  0.0868138183889936  0.4070375819033079  0.2589274110228938   T   T   T
  0.3257495849348049  0.4158229764526937  0.2591268750256427   T   T   T
  0.6844969584978462  0.5925706233865514  0.2925879167706948   T   T   T
  0.9111022992874552  0.5937937970413641  0.2907391278192452   T   T   T
  0.9139108791757710  0.8176391081372154  0.2925838346349697   T   T   T
  0.6527112599224215  0.3367226937154051  0.3026961825623916   T   T   T
  0.1605445380414621  0.8058059818458561  0.3003710185539781   T   T   T
  0.6967040605616893  0.8551799758064438  0.3013010223595428   T   T   T
  0.8937448328100109  0.0600717325513644  0.3083117311989006   T   T   T
  0.4410399560060684  0.3260932897739259  0.3106804266881495   T   T   T
  0.1755100577499676  0.6102546256749478  0.3111221743346588   T   T   T
  0.6656418805755379  0.0607115819417254  0.3267549883855731   T   T   T
  0.4440740230622512  0.1042392913720604  0.3209055333922102   T   T   T
  0.3977304412751695  0.8406552956504878  0.3201922954060397   T   T   T
  0.2370048088526465  0.2408498868981842  0.3537772494265021   T   T   T
  0.0055222963756688  0.2631938571716851  0.3541767209805746   T   T   T
  0.2608491675092219  0.4930514377279758  0.3538808469029868   T   T   T
  0.2359750488153937  0.0019489460870240  0.3524466097928474   T   T   T
  0.7757252421090778  0.2690327565303709  0.3584144479303089   T   T   T
  0.5000873487053000  0.7331936263205476  0.3525104492955176   T   T   T
  0.9803219634048529  0.4830750206971768  0.3563330198456928   T   T   T
  0.5060726459173889  0.5187577977902853  0.3579945831287641   T   T   T
  0.0168173529009319  0.9956576946000502  0.3585738071321032   T   T   T
  0.7505761138631518  0.5052278634587789  0.3703493810453325   T   T   T
  0.7586610411392737  0.7516474702545500  0.3709996053547184   T   T   T
  0.9967987980840093  0.7418623856891168  0.3712596637021267   T   T   T
  0.7836737285169785  0.2774249402432819  0.3945824399103774   T   T   T
 
  0.00000000E+00  0.00000000E+00  0.00000000E+00
  0.00000000E+00  0.00000000E+00  0.00000000E+00
  0.00000000E+00  0.00000000E+00  0.00000000E+00
  0.00000000E+00  0.00000000E+00  0.00000000E+00
  0.00000000E+00  0.00000000E+00  0.00000000E+00
  0.00000000E+00  0.00000000E+00  0.00000000E+00
  0.00000000E+00  0.00000000E+00  0.00000000E+00
  0.00000000E+00  0.00000000E+00  0.00000000E+00
  0.00000000E+00  0.00000000E+00  0.00000000E+00
  0.00000000E+00  0.00000000E+00  0.00000000E+00
  0.00000000E+00  0.00000000E+00  0.00000000E+00
  0.00000000E+00  0.00000000E+00  0.00000000E+00
  0.00000000E+00  0.00000000E+00  0.00000000E+00
  0.00000000E+00  0.00000000E+00  0.00000000E+00
  0.00000000E+00  0.00000000E+00  0.00000000E+00
  0.00000000E+00  0.00000000E+00  0.00000000E+00
  0.00000000E+00  0.00000000E+00  0.00000000E+00
  0.00000000E+00  0.00000000E+00  0.00000000E+00
  0.00000000E+00  0.00000000E+00  0.00000000E+00
  0.00000000E+00  0.00000000E+00  0.00000000E+00
  0.00000000E+00  0.00000000E+00  0.00000000E+00
  0.00000000E+00  0.00000000E+00  0.00000000E+00
  0.00000000E+00  0.00000000E+00  0.00000000E+00
  0.00000000E+00  0.00000000E+00  0.00000000E+00
  0.00000000E+00  0.00000000E+00  0.00000000E+00
  0.00000000E+00  0.00000000E+00  0.00000000E+00
  0.00000000E+00  0.00000000E+00  0.00000000E+00
  0.00000000E+00  0.00000000E+00  0.00000000E+00
  0.00000000E+00  0.00000000E+00  0.00000000E+00
  0.00000000E+00  0.00000000E+00  0.00000000E+00
  0.00000000E+00  0.00000000E+00  0.00000000E+00
  0.00000000E+00  0.00000000E+00  0.00000000E+00
  0.00000000E+00  0.00000000E+00  0.00000000E+00
  0.00000000E+00  0.00000000E+00  0.00000000E+00
  0.00000000E+00  0.00000000E+00  0.00000000E+00
  0.00000000E+00  0.00000000E+00  0.00000000E+00
  0.00000000E+00  0.00000000E+00  0.00000000E+00
  0.00000000E+00  0.00000000E+00  0.00000000E+00
  0.00000000E+00  0.00000000E+00  0.00000000E+00
  0.00000000E+00  0.00000000E+00  0.00000000E+00
  0.00000000E+00  0.00000000E+00  0.00000000E+00
  0.00000000E+00  0.00000000E+00  0.00000000E+00
  0.00000000E+00  0.00000000E+00  0.00000000E+00
  0.00000000E+00  0.00000000E+00  0.00000000E+00
  0.00000000E+00  0.00000000E+00  0.00000000E+00
  0.00000000E+00  0.00000000E+00  0.00000000E+00
  0.00000000E+00  0.00000000E+00  0.00000000E+00
  0.00000000E+00  0.00000000E+00  0.00000000E+00
  0.00000000E+00  0.00000000E+00  0.00000000E+00
  0.00000000E+00  0.00000000E+00  0.00000000E+00
  0.00000000E+00  0.00000000E+00  0.00000000E+00
  0.00000000E+00  0.00000000E+00  0.00000000E+00
  0.00000000E+00  0.00000000E+00  0.00000000E+00
  0.00000000E+00  0.00000000E+00  0.00000000E+00
  0.00000000E+00  0.00000000E+00  0.00000000E+00
  0.00000000E+00  0.00000000E+00  0.00000000E+00
  0.00000000E+00  0.00000000E+00  0.00000000E+00
  0.00000000E+00  0.00000000E+00  0.00000000E+00
  0.00000000E+00  0.00000000E+00  0.00000000E+00
  0.00000000E+00  0.00000000E+00  0.00000000E+00
  0.00000000E+00  0.00000000E+00  0.00000000E+00
  0.00000000E+00  0.00000000E+00  0.00000000E+00
  0.00000000E+00  0.00000000E+00  0.00000000E+00
  0.00000000E+00  0.00000000E+00  0.00000000E+00
  0.00000000E+00  0.00000000E+00  0.00000000E+00
  0.00000000E+00  0.00000000E+00  0.00000000E+00
  0.00000000E+00  0.00000000E+00  0.00000000E+00
  0.00000000E+00  0.00000000E+00  0.00000000E+00
  0.00000000E+00  0.00000000E+00  0.00000000E+00
  0.00000000E+00  0.00000000E+00  0.00000000E+00
  0.00000000E+00  0.00000000E+00  0.00000000E+00
  0.00000000E+00  0.00000000E+00  0.00000000E+00
  0.00000000E+00  0.00000000E+00  0.00000000E+00
  0.00000000E+00  0.00000000E+00  0.00000000E+00
  0.00000000E+00  0.00000000E+00  0.00000000E+00
  0.00000000E+00  0.00000000E+00  0.00000000E+00
  0.00000000E+00  0.00000000E+00  0.00000000E+00
  0.00000000E+00  0.00000000E+00  0.00000000E+00
  0.00000000E+00  0.00000000E+00  0.00000000E+00
  0.00000000E+00  0.00000000E+00  0.00000000E+00
  0.00000000E+00  0.00000000E+00  0.00000000E+00
  0.00000000E+00  0.00000000E+00  0.00000000E+00
  0.00000000E+00  0.00000000E+00  0.00000000E+00
  0.00000000E+00  0.00000000E+00  0.00000000E+00
  0.00000000E+00  0.00000000E+00  0.00000000E+00
  0.00000000E+00  0.00000000E+00  0.00000000E+00
  0.00000000E+00  0.00000000E+00  0.00000000E+00
  0.00000000E+00  0.00000000E+00  0.00000000E+00
  0.00000000E+00  0.00000000E+00  0.00000000E+00
  0.00000000E+00  0.00000000E+00  0.00000000E+00
  0.00000000E+00  0.00000000E+00  0.00000000E+00
  0.00000000E+00  0.00000000E+00  0.00000000E+00
  0.00000000E+00  0.00000000E+00  0.00000000E+00
  0.00000000E+00  0.00000000E+00  0.00000000E+00
  0.00000000E+00  0.00000000E+00  0.00000000E+00
  0.00000000E+00  0.00000000E+00  0.00000000E+00
  0.00000000E+00  0.00000000E+00  0.00000000E+00
  0.00000000E+00  0.00000000E+00  0.00000000E+00
  0.00000000E+00  0.00000000E+00  0.00000000E+00
  0.00000000E+00  0.00000000E+00  0.00000000E+00
  0.00000000E+00  0.00000000E+00  0.00000000E+00
  0.00000000E+00  0.00000000E+00  0.00000000E+00
  0.00000000E+00  0.00000000E+00  0.00000000E+00
  0.00000000E+00  0.00000000E+00  0.00000000E+00
  0.00000000E+00  0.00000000E+00  0.00000000E+00
  0.00000000E+00  0.00000000E+00  0.00000000E+00
  0.00000000E+00  0.00000000E+00  0.00000000E+00
  0.00000000E+00  0.00000000E+00  0.00000000E+00
  0.00000000E+00  0.00000000E+00  0.00000000E+00
  0.00000000E+00  0.00000000E+00  0.00000000E+00
  0.00000000E+00  0.00000000E+00  0.00000000E+00
  0.00000000E+00  0.00000000E+00  0.00000000E+00
  0.00000000E+00  0.00000000E+00  0.00000000E+00
  0.00000000E+00  0.00000000E+00  0.00000000E+00
  0.00000000E+00  0.00000000E+00  0.00000000E+00
  0.00000000E+00  0.00000000E+00  0.00000000E+00
  0.00000000E+00  0.00000000E+00  0.00000000E+00
  0.00000000E+00  0.00000000E+00  0.00000000E+00
  0.00000000E+00  0.00000000E+00  0.00000000E+00
  0.00000000E+00  0.00000000E+00  0.00000000E+00
  0.00000000E+00  0.00000000E+00  0.00000000E+00
