In O H                                  
   1.00000000000000     
    14.4942117030500004    0.0000000000000000    0.0000000000000000
    -7.2471058515250002   12.5523555426710001    0.0000000000000000
     0.0000000000000000    0.0000000000000000   26.8344742987830003
   In   O    H 
    48    72     1
Selective dynamics
Direct
  0.2822252264459089  0.0158513936256926  0.1048689400333767   T   T   T
  0.2443989970210105  0.2321281664947313  0.1021605650123747   T   T   T
  0.7382023971178034  0.2201113052231851  0.1064513263103363   T   T   T
  0.9927550009864831  0.2589732275901694  0.1026226686760726   T   T   T
  0.2709206804357946  0.5102792533337678  0.1021594139415772   T   T   T
  0.4868386765975725  0.7649363554068567  0.1054659127487483   T   T   T
  0.9985929675093969  0.0079821347282363  0.1116551150302253   T   T   T
  0.0139367131682042  0.5043703137619674  0.1119468084130193   T   T   T
  0.4961139258265820  0.4898965699995267  0.1110023839436532   T   T   T
  0.5028707690873545  0.0004209501301482  0.0983839565922432   T   T   T
  0.5161188512852326  0.2394302260419502  0.1096454582057931   T   T   T
  0.7232991712465640  0.4874358540543227  0.1206464236312889   T   T   T
  0.0157604800485226  0.7337018352326268  0.1206640676611772   T   T   T
  0.2641341714178663  0.7750485267612035  0.1102403150013427   T   T   T
  0.7682749896320403  0.7792593975729469  0.1197325461625250   T   T   T
  0.7282389244078621  0.9874371376238598  0.1111868483577931   T   T   T
  0.1574788204471774  0.0927293067304818  0.2119359182953183   T   T   T
  0.9396858403100635  0.3452272173786897  0.2121630591332916   T   T   T
  0.4104566203584196  0.5633645198830586  0.2113957710746505   T   T   T
  0.9027942826398470  0.5572646006387854  0.2149749487078124   T   T   T
  0.6592682349803973  0.6002960810241917  0.2148908726446207   T   T   T
  0.9445002083650589  0.8428487711548197  0.2131806888198116   T   T   T
  0.6682746105340670  0.3330906654965406  0.2207759263799242   T   T   T
  0.1707723603693302  0.8346558280314700  0.2202828497325510   T   T   T
  0.6691750279201115  0.8334093724219620  0.2200756452749605   T   T   T
  0.1693564662092263  0.3340749829251292  0.2203011569880593   T   T   T
  0.6784688583110291  0.0671378048471124  0.2257255379673211   T   T   T
  0.4349363124561580  0.1094508108662554  0.2225773808313348   T   T   T
  0.9280993427177860  0.1043978672615177  0.2289694550002612   T   T   T
  0.3989356872904271  0.3233297737556481  0.2275974473612530   T   T   T
  0.1809490083846026  0.5744660864611075  0.2290142204958083   T   T   T
  0.3941657406219073  0.8226150210657889  0.2245156321268502   T   T   T
  0.6137527999498965  0.1782376486184080  0.3214322758887682   T   T   T
  0.8233895152893055  0.4273666411015248  0.3294444702114898   T   T   T
  0.6106384717868483  0.6797934419752565  0.3297080015941324   T   T   T
  0.0671882936761759  0.8872304642078536  0.3256286159511639   T   T   T
  0.5705241913571691  0.8869938949888627  0.3206832091641312   T   T   T
  0.3290062591369946  0.9330047211320498  0.3200208969805885   T   T   T
  0.3333028038741740  0.1715449002987852  0.3282510523155602   T   T   T
  0.8430220428349644  0.1778486553988438  0.3294940370148630   T   T   T
  0.3407519501591586  0.6595614905238333  0.3292221253652494   T   T   T
  0.8350566803969108  0.6657670381081353  0.3406499170539409   T   T   T
  0.0686943953631251  0.1569645688995325  0.3379860227325880   T   T   T
  0.3471943837937809  0.4107731438681055  0.3380322448509316   T   T   T
  0.0941232869653918  0.4349816626434485  0.3385762528878009   T   T   T
  0.6020350412869823  0.4484144138633951  0.3345962564215095   T   T   T
  0.0565166070890555  0.6511711143692261  0.3348397198881004   T   T   T
  0.8510362595859658  0.9021156037309135  0.3342318671161717   T   T   T
  0.5892357298025831  0.1623986800050325  0.0690214989328467   T   T   T
  0.3407227096402901  0.9241553093147674  0.0686454112722871   T   T   T
  0.5790709177519349  0.9151893814199092  0.0692152153789579   T   T   T
  0.8323194547816791  0.1483415491521817  0.0835549401544439   T   T   T
  0.3542596585547979  0.1818682028136498  0.0824004976582914   T   T   T
  0.3208488333553518  0.6707258180793799  0.0827337435676864   T   T   T
  0.5690278471361535  0.4021486267604819  0.0883319256507552   T   T   T
  0.1010601979524337  0.6646888584067663  0.0888844402973266   T   T   T
  0.8385188984750309  0.9344351591170739  0.0886618761834692   T   T   T
  0.0766002313527574  0.1737240540391372  0.0874932211110013   T   T   T
  0.3296394109168443  0.4009174862767139  0.0873415575064683   T   T   T
  0.1018635342004487  0.4266382015388029  0.0873241159613257   T   T   T
  0.8913907257282869  0.5615520032537812  0.1224132409389849   T   T   T
  0.6751928228496161  0.6115687791445912  0.1209063564500020   T   T   T
  0.9417031385305814  0.8278030410040610  0.1224515199659294   T   T   T
  0.1622734967612280  0.0559918247760901  0.1304262602902961   T   T   T
  0.8988644499117743  0.3408330805902383  0.1306020880371378   T   T   T
  0.4468127995698892  0.6043759094484151  0.1297322290492115   T   T   T
  0.6878644613425001  0.3245872537925154  0.1406436886348062   T   T   T
  0.6412724711946437  0.8148204530861229  0.1398749702423741   T   T   T
  0.1786989871560833  0.8620147445595823  0.1403007764995022   T   T   T
  0.4293429795678610  0.0777310380924492  0.1463040320602553   T   T   T
  0.6525338118273017  0.0734595141545154  0.1483806808683237   T   T   T
  0.4245867039515242  0.8496406306627347  0.1473821719722391   T   T   T
  0.0131572870038343  0.2515078507149508  0.1823429087562968   T   T   T
  0.2517930871363144  0.2587867534411208  0.1822171698437005   T   T   T
  0.2433555049302248  0.4899740968673163  0.1818338767846881   T   T   T
  0.9831051933023172  0.0062432076675476  0.1923927572596204   T   T   T
  0.4973422952509488  0.4753595497219660  0.1915320746766559   T   T   T
  0.0283079560725816  0.5203643686993334  0.1925173203451235   T   T   T
  0.5037580027493732  0.2739929420107892  0.1972109158101263   T   T   T
  0.2288140939941225  0.7290736419714703  0.1986866664258529   T   T   T
  0.7745648970856026  0.9982351260572788  0.1980067034749329   T   T   T
  0.7336891481945040  0.5064581140476671  0.2014227330118254   T   T   T
  0.9978907114124153  0.7262758287875641  0.2016460721351862   T   T   T
  0.7763987330112303  0.7681810930013157  0.2003441123512723   T   T   T
  0.5998207593925338  0.1577077068442295  0.2411084990188304   T   T   T
  0.5609356021176989  0.8984166668324125  0.2400269669555384   T   T   T
  0.3454162679185376  0.9433027487886317  0.2402464505200453   T   T   T
  0.8329443407096024  0.3923975452720022  0.2434456203112640   T   T   T
  0.5637323974135162  0.6689572548686620  0.2430052114911821   T   T   T
  0.1102256064668094  0.9388735899670811  0.2439055662529121   T   T   T
  0.3103551597757429  0.1439415441501654  0.2497582816502645   T   T   T
  0.8408402167736444  0.1922759456882973  0.2490075158297322   T   T   T
  0.3559925002066399  0.6610438270712246  0.2487050222327204   T   T   T
  0.0960552010604873  0.1777602360542112  0.2588947282956003   T   T   T
  0.0872810239273358  0.4079156731079350  0.2591202610879900   T   T   T
  0.3252453598018924  0.4159896022116640  0.2586174824865464   T   T   T
  0.6853590277967491  0.5940857339564564  0.2925200228208046   T   T   T
  0.9107581146762412  0.5900603805475212  0.2925708390568743   T   T   T
  0.9092486854614802  0.8154890562460565  0.2907415799184916   T   T   T
  0.6480774617667403  0.3396428609699166  0.3012698069077677   T   T   T
  0.1663422531448509  0.8140405104887494  0.3027129103421380   T   T   T
  0.6971377519585819  0.8526728878138674  0.3003918562673847   T   T   T
  0.8927388706815779  0.0631887039238870  0.3111617176549279   T   T   T
  0.4430623026033214  0.3316561613374510  0.3083510136484715   T   T   T
  0.1768010908605394  0.6128941909133621  0.3107516899434170   T   T   T
  0.6624141129615688  0.0550862213432464  0.3201386217437536   T   T   T
  0.4424888630730343  0.1030088860209561  0.3265758440339288   T   T   T
  0.3987687672531257  0.8378276481676363  0.3208687296676072   T   T   T
  0.2396896085265973  0.2402152443496930  0.3541198266333048   T   T   T
  0.0099170395238392  0.2657995968030063  0.3538276680678920   T   T   T
  0.2620780369393576  0.4940130969813477  0.3537490218289177   T   T   T
  0.2340999908795938  0.0047796845079548  0.3583245764517283   T   T   T
  0.7698550999562492  0.2648814699978183  0.3524993303074230   T   T   T
  0.5009470386842427  0.7318980450318958  0.3523991830779316   T   T   T
  0.9843082408969729  0.4853789278495239  0.3581192098597901   T   T   T
  0.5072181626294319  0.5189088314466679  0.3586020485655719   T   T   T
  0.0198238387142544  0.9952631166291658  0.3564920846838988   T   T   T
  0.7515978485377673  0.5051624428735283  0.3708975961638900   T   T   T
  0.7610873919847935  0.7527049567159426  0.3711473029049259   T   T   T
  0.9978137328001697  0.7435681347911287  0.3703108927462009   T   T   T
  0.2256985722427046  0.0041894869995403  0.3944915400286573   T   T   T
 
  0.00000000E+00  0.00000000E+00  0.00000000E+00
  0.00000000E+00  0.00000000E+00  0.00000000E+00
  0.00000000E+00  0.00000000E+00  0.00000000E+00
  0.00000000E+00  0.00000000E+00  0.00000000E+00
  0.00000000E+00  0.00000000E+00  0.00000000E+00
  0.00000000E+00  0.00000000E+00  0.00000000E+00
  0.00000000E+00  0.00000000E+00  0.00000000E+00
  0.00000000E+00  0.00000000E+00  0.00000000E+00
  0.00000000E+00  0.00000000E+00  0.00000000E+00
  0.00000000E+00  0.00000000E+00  0.00000000E+00
  0.00000000E+00  0.00000000E+00  0.00000000E+00
  0.00000000E+00  0.00000000E+00  0.00000000E+00
  0.00000000E+00  0.00000000E+00  0.00000000E+00
  0.00000000E+00  0.00000000E+00  0.00000000E+00
  0.00000000E+00  0.00000000E+00  0.00000000E+00
  0.00000000E+00  0.00000000E+00  0.00000000E+00
  0.00000000E+00  0.00000000E+00  0.00000000E+00
  0.00000000E+00  0.00000000E+00  0.00000000E+00
  0.00000000E+00  0.00000000E+00  0.00000000E+00
  0.00000000E+00  0.00000000E+00  0.00000000E+00
  0.00000000E+00  0.00000000E+00  0.00000000E+00
  0.00000000E+00  0.00000000E+00  0.00000000E+00
  0.00000000E+00  0.00000000E+00  0.00000000E+00
  0.00000000E+00  0.00000000E+00  0.00000000E+00
  0.00000000E+00  0.00000000E+00  0.00000000E+00
  0.00000000E+00  0.00000000E+00  0.00000000E+00
  0.00000000E+00  0.00000000E+00  0.00000000E+00
  0.00000000E+00  0.00000000E+00  0.00000000E+00
  0.00000000E+00  0.00000000E+00  0.00000000E+00
  0.00000000E+00  0.00000000E+00  0.00000000E+00
  0.00000000E+00  0.00000000E+00  0.00000000E+00
  0.00000000E+00  0.00000000E+00  0.00000000E+00
  0.00000000E+00  0.00000000E+00  0.00000000E+00
  0.00000000E+00  0.00000000E+00  0.00000000E+00
  0.00000000E+00  0.00000000E+00  0.00000000E+00
  0.00000000E+00  0.00000000E+00  0.00000000E+00
  0.00000000E+00  0.00000000E+00  0.00000000E+00
  0.00000000E+00  0.00000000E+00  0.00000000E+00
  0.00000000E+00  0.00000000E+00  0.00000000E+00
  0.00000000E+00  0.00000000E+00  0.00000000E+00
  0.00000000E+00  0.00000000E+00  0.00000000E+00
  0.00000000E+00  0.00000000E+00  0.00000000E+00
  0.00000000E+00  0.00000000E+00  0.00000000E+00
  0.00000000E+00  0.00000000E+00  0.00000000E+00
  0.00000000E+00  0.00000000E+00  0.00000000E+00
  0.00000000E+00  0.00000000E+00  0.00000000E+00
  0.00000000E+00  0.00000000E+00  0.00000000E+00
  0.00000000E+00  0.00000000E+00  0.00000000E+00
  0.00000000E+00  0.00000000E+00  0.00000000E+00
  0.00000000E+00  0.00000000E+00  0.00000000E+00
  0.00000000E+00  0.00000000E+00  0.00000000E+00
  0.00000000E+00  0.00000000E+00  0.00000000E+00
  0.00000000E+00  0.00000000E+00  0.00000000E+00
  0.00000000E+00  0.00000000E+00  0.00000000E+00
  0.00000000E+00  0.00000000E+00  0.00000000E+00
  0.00000000E+00  0.00000000E+00  0.00000000E+00
  0.00000000E+00  0.00000000E+00  0.00000000E+00
  0.00000000E+00  0.00000000E+00  0.00000000E+00
  0.00000000E+00  0.00000000E+00  0.00000000E+00
  0.00000000E+00  0.00000000E+00  0.00000000E+00
  0.00000000E+00  0.00000000E+00  0.00000000E+00
  0.00000000E+00  0.00000000E+00  0.00000000E+00
  0.00000000E+00  0.00000000E+00  0.00000000E+00
  0.00000000E+00  0.00000000E+00  0.00000000E+00
  0.00000000E+00  0.00000000E+00  0.00000000E+00
  0.00000000E+00  0.00000000E+00  0.00000000E+00
  0.00000000E+00  0.00000000E+00  0.00000000E+00
  0.00000000E+00  0.00000000E+00  0.00000000E+00
  0.00000000E+00  0.00000000E+00  0.00000000E+00
  0.00000000E+00  0.00000000E+00  0.00000000E+00
  0.00000000E+00  0.00000000E+00  0.00000000E+00
  0.00000000E+00  0.00000000E+00  0.00000000E+00
  0.00000000E+00  0.00000000E+00  0.00000000E+00
  0.00000000E+00  0.00000000E+00  0.00000000E+00
  0.00000000E+00  0.00000000E+00  0.00000000E+00
  0.00000000E+00  0.00000000E+00  0.00000000E+00
  0.00000000E+00  0.00000000E+00  0.00000000E+00
  0.00000000E+00  0.00000000E+00  0.00000000E+00
  0.00000000E+00  0.00000000E+00  0.00000000E+00
  0.00000000E+00  0.00000000E+00  0.00000000E+00
  0.00000000E+00  0.00000000E+00  0.00000000E+00
  0.00000000E+00  0.00000000E+00  0.00000000E+00
  0.00000000E+00  0.00000000E+00  0.00000000E+00
  0.00000000E+00  0.00000000E+00  0.00000000E+00
  0.00000000E+00  0.00000000E+00  0.00000000E+00
  0.00000000E+00  0.00000000E+00  0.00000000E+00
  0.00000000E+00  0.00000000E+00  0.00000000E+00
  0.00000000E+00  0.00000000E+00  0.00000000E+00
  0.00000000E+00  0.00000000E+00  0.00000000E+00
  0.00000000E+00  0.00000000E+00  0.00000000E+00
  0.00000000E+00  0.00000000E+00  0.00000000E+00
  0.00000000E+00  0.00000000E+00  0.00000000E+00
  0.00000000E+00  0.00000000E+00  0.00000000E+00
  0.00000000E+00  0.00000000E+00  0.00000000E+00
  0.00000000E+00  0.00000000E+00  0.00000000E+00
  0.00000000E+00  0.00000000E+00  0.00000000E+00
  0.00000000E+00  0.00000000E+00  0.00000000E+00
  0.00000000E+00  0.00000000E+00  0.00000000E+00
  0.00000000E+00  0.00000000E+00  0.00000000E+00
  0.00000000E+00  0.00000000E+00  0.00000000E+00
  0.00000000E+00  0.00000000E+00  0.00000000E+00
  0.00000000E+00  0.00000000E+00  0.00000000E+00
  0.00000000E+00  0.00000000E+00  0.00000000E+00
  0.00000000E+00  0.00000000E+00  0.00000000E+00
  0.00000000E+00  0.00000000E+00  0.00000000E+00
  0.00000000E+00  0.00000000E+00  0.00000000E+00
  0.00000000E+00  0.00000000E+00  0.00000000E+00
  0.00000000E+00  0.00000000E+00  0.00000000E+00
  0.00000000E+00  0.00000000E+00  0.00000000E+00
  0.00000000E+00  0.00000000E+00  0.00000000E+00
  0.00000000E+00  0.00000000E+00  0.00000000E+00
  0.00000000E+00  0.00000000E+00  0.00000000E+00
  0.00000000E+00  0.00000000E+00  0.00000000E+00
  0.00000000E+00  0.00000000E+00  0.00000000E+00
  0.00000000E+00  0.00000000E+00  0.00000000E+00
  0.00000000E+00  0.00000000E+00  0.00000000E+00
  0.00000000E+00  0.00000000E+00  0.00000000E+00
  0.00000000E+00  0.00000000E+00  0.00000000E+00
  0.00000000E+00  0.00000000E+00  0.00000000E+00
  0.00000000E+00  0.00000000E+00  0.00000000E+00
  0.00000000E+00  0.00000000E+00  0.00000000E+00
