In O H                                  
   1.00000000000000     
    14.4942117030500004    0.0000000000000000    0.0000000000000000
    -7.2471058515250002   12.5523555426710001    0.0000000000000000
     0.0000000000000000    0.0000000000000000   26.8344742987830003
   In   O    H 
    48    72     1
Selective dynamics
Direct
  0.2831253493566772  0.0162478147899687  0.1062470331293862   T   T   T
  0.2442729301915218  0.2320153214946352  0.1018878533847426   T   T   T
  0.7382315106934245  0.2200305549277355  0.1061991632385084   T   T   T
  0.9930136138621737  0.2589168267579873  0.1019037744279874   T   T   T
  0.2712938390148303  0.5103927897242998  0.1024657265088449   T   T   T
  0.4870380974853339  0.7649796507039685  0.1064737494082311   T   T   T
  0.9986878562469610  0.0082598160845495  0.1110755814734465   T   T   T
  0.0145647354779881  0.5045671554838633  0.1115523652875878   T   T   T
  0.4953113944428466  0.4890640924097810  0.1117641324484408   T   T   T
  0.5028281758748556  0.0003891041560256  0.0998249186105518   T   T   T
  0.5158329474526199  0.2388392657508289  0.1106680610847609   T   T   T
  0.7231350677441332  0.4874062315982026  0.1202136056635845   T   T   T
  0.0158698099603104  0.7340133591384166  0.1206044698291735   T   T   T
  0.2642868515684264  0.7748603100010684  0.1110884525857445   T   T   T
  0.7687644772116888  0.7796576687328794  0.1206579534690361   T   T   T
  0.7284123581006096  0.9874586967105915  0.1115356018341589   T   T   T
  0.1574086227043068  0.0928217960507569  0.2114006358827298   T   T   T
  0.9410847885650325  0.3448837999393974  0.2111273403557217   T   T   T
  0.4106452077005132  0.5631403865465902  0.2121597498698252   T   T   T
  0.9026715594261799  0.5573123442252894  0.2136932784655813   T   T   T
  0.6598672622443579  0.6001414366376707  0.2144607231820742   T   T   T
  0.9468454976474477  0.8449811826796058  0.2132714770252327   T   T   T
  0.6687812264308453  0.3335699228035582  0.2201389529308476   T   T   T
  0.1701149568572082  0.8341324977005080  0.2203878939065471   T   T   T
  0.6696757240758078  0.8339074939966864  0.2208556129711088   T   T   T
  0.1692802312836833  0.3337571518671085  0.2201542892529938   T   T   T
  0.6793934247486485  0.0677690677396701  0.2258833311560960   T   T   T
  0.4356197816384128  0.1100214913173633  0.2256919185211847   T   T   T
  0.9287958016962515  0.1049454710969660  0.2286976596077035   T   T   T
  0.3967781621685257  0.3210460408848329  0.2280535300821286   T   T   T
  0.1814224576489625  0.5746251690136048  0.2288108875204397   T   T   T
  0.3934409783772119  0.8238886510474211  0.2255791380006202   T   T   T
  0.6144914824512919  0.1786584299656253  0.3213116640192890   T   T   T
  0.8284400536267938  0.4233239542109665  0.3249540135778675   T   T   T
  0.6100503757680045  0.6803517327557306  0.3294777014413969   T   T   T
  0.0759295796208747  0.8946247513440577  0.3287167125183247   T   T   T
  0.5689811939512248  0.8876572251330462  0.3208751519425143   T   T   T
  0.3237931867161482  0.9334660228029390  0.3208024973122808   T   T   T
  0.3228258854836626  0.1614348071720199  0.3289102839287754   T   T   T
  0.8427645591950015  0.1770053529816053  0.3292597850194041   T   T   T
  0.3400718042782052  0.6604458881988508  0.3293436536677427   T   T   T
  0.8398929832790508  0.6742289029969680  0.3357984717639615   T   T   T
  0.0675699169177113  0.1573789075815944  0.3383750038348733   T   T   T
  0.3440101156996239  0.4077115871497348  0.3382342392207415   T   T   T
  0.0952414270024873  0.4351104824209727  0.3382769556616508   T   T   T
  0.5943350203806865  0.4444612986836239  0.3313013606158863   T   T   T
  0.0556005873712044  0.6514499282359260  0.3339346788526693   T   T   T
  0.8519709547548646  0.9040492212596350  0.3345535976244176   T   T   T
  0.5883444311276782  0.1616515545077522  0.0696538077914856   T   T   T
  0.3413729485382908  0.9245183018880385  0.0698864382943195   T   T   T
  0.5791404858982145  0.9150147467190217  0.0701129444300915   T   T   T
  0.8321780198066785  0.1481710248930593  0.0833940185419215   T   T   T
  0.3549619681897304  0.1820207821745857  0.0831202388230356   T   T   T
  0.3213641646188625  0.6709264793543692  0.0833246746005730   T   T   T
  0.5684176164857491  0.4019265248037316  0.0887632000343594   T   T   T
  0.1011260039263655  0.6647600453902631  0.0888362680914337   T   T   T
  0.8380845157999699  0.9341014897411112  0.0887982638244306   T   T   T
  0.0766312072620356  0.1737831704427446  0.0866114674255532   T   T   T
  0.3297817511880828  0.4012104530749374  0.0872725345628200   T   T   T
  0.1023519200396106  0.4267443545770324  0.0872342465216860   T   T   T
  0.8912014942253357  0.5615142795370713  0.1224078910505570   T   T   T
  0.6751511698635214  0.6116510789070860  0.1222128308195319   T   T   T
  0.9416538434452129  0.8278952135876592  0.1224776497971580   T   T   T
  0.1620438595594859  0.0562129207333244  0.1297816918503837   T   T   T
  0.8991479541826797  0.3411446152979281  0.1300283140028120   T   T   T
  0.4470846008673370  0.6042095602282294  0.1307361326527077   T   T   T
  0.6885543579251043  0.3252632188526503  0.1401972245037269   T   T   T
  0.6414913878495656  0.8142619617049590  0.1408911257084653   T   T   T
  0.1778502286917249  0.8614630407835626  0.1403862235704057   T   T   T
  0.4298675928785335  0.0786742663340257  0.1483963163422679   T   T   T
  0.6534722651102418  0.0740550807363830  0.1487156316005164   T   T   T
  0.4250897777549109  0.8497498365603133  0.1483586690427758   T   T   T
  0.0134903057311530  0.2514690430054181  0.1816193387386749   T   T   T
  0.2509447113319724  0.2595500503017373  0.1815917784347396   T   T   T
  0.2435445104388422  0.4900283077771634  0.1821085658800583   T   T   T
  0.9830918883791585  0.0071682094157278  0.1916635055314662   T   T   T
  0.4970832909979478  0.4746074218245412  0.1924825238322704   T   T   T
  0.0282546059078657  0.5201484946408814  0.1923464472679189   T   T   T
  0.5050995924274770  0.2749252707907812  0.1987129841678031   T   T   T
  0.2287802522322194  0.7283924954341997  0.1981690633799159   T   T   T
  0.7748508478098602  0.9984420312461562  0.1982994495235005   T   T   T
  0.7338594616446972  0.5060800471953107  0.2012486507601119   T   T   T
  0.9964385115132324  0.7252719016099638  0.2016540867625783   T   T   T
  0.7774558809636080  0.7684241258974833  0.2014995970145605   T   T   T
  0.6051622962490462  0.1624669566698577  0.2409618275342150   T   T   T
  0.5613492081870507  0.8989985058869221  0.2403432001654732   T   T   T
  0.3434165460122118  0.9421815007039127  0.2403954474091904   T   T   T
  0.8339271536570551  0.3919788056394894  0.2423803353573682   T   T   T
  0.5651992827733731  0.6680028857741140  0.2443821685777534   T   T   T
  0.1106161546667298  0.9393733691741677  0.2427900692045994   T   T   T
  0.3094586980753282  0.1461746640499207  0.2484830504609009   T   T   T
  0.8419933082962495  0.1934769954975706  0.2489361124158456   T   T   T
  0.3567365619131276  0.6615498574155203  0.2489846560886601   T   T   T
  0.0954734282766097  0.1778221709873229  0.2589184318341700   T   T   T
  0.0870996568324626  0.4075784901854982  0.2589146427357107   T   T   T
  0.3251246251985826  0.4156466866756750  0.2589242076270776   T   T   T
  0.6876962694143058  0.5912602236546072  0.2930548650706438   T   T   T
  0.9043597845922947  0.5856291913726911  0.2928851334385190   T   T   T
  0.9148672984268457  0.8217533139027009  0.2910441210068817   T   T   T
  0.6557446199853018  0.3482439298098937  0.3026741982911794   T   T   T
  0.1605489917768937  0.8059253623021791  0.3006949200774423   T   T   T
  0.6970162903031599  0.8532658980961594  0.3012138575631166   T   T   T
  0.8924147762466527  0.0637121216730101  0.3106283310077749   T   T   T
  0.4370519612492773  0.3245950387943908  0.3097228165992701   T   T   T
  0.1756901682705143  0.6104481240731335  0.3108195664426208   T   T   T
  0.6635954850515089  0.0557400004591987  0.3201360264960056   T   T   T
  0.4475206773058760  0.1071301126868836  0.3202503186175595   T   T   T
  0.3969577243490078  0.8391691289288654  0.3203908674481597   T   T   T
  0.2363500151417537  0.2403273761067591  0.3541893059821525   T   T   T
  0.0086394937334930  0.2665194846693867  0.3540863030262056   T   T   T
  0.2626884404265904  0.4944240752284912  0.3542163849654887   T   T   T
  0.2375163635464805  0.0018898003081110  0.3526219124371536   T   T   T
  0.7698118176379669  0.2649201584752036  0.3527706856505703   T   T   T
  0.5003773498476636  0.7323682815395935  0.3525961995567223   T   T   T
  0.9836985990492794  0.4855403968848447  0.3577740079049859   T   T   T
  0.5069608328185854  0.5179964592777005  0.3576756958131258   T   T   T
  0.0175630030438751  0.9964917351882585  0.3579811690284286   T   T   T
  0.7516273848326651  0.5071183115239787  0.3743225928930577   T   T   T
  0.7606948967607576  0.7512033211112317  0.3701689022010525   T   T   T
  0.9953907628256493  0.7423108108063345  0.3698544473342910   T   T   T
  0.7588684932982193  0.5106660906451785  0.4104778360682617   T   T   T
 
  0.00000000E+00  0.00000000E+00  0.00000000E+00
  0.00000000E+00  0.00000000E+00  0.00000000E+00
  0.00000000E+00  0.00000000E+00  0.00000000E+00
  0.00000000E+00  0.00000000E+00  0.00000000E+00
  0.00000000E+00  0.00000000E+00  0.00000000E+00
  0.00000000E+00  0.00000000E+00  0.00000000E+00
  0.00000000E+00  0.00000000E+00  0.00000000E+00
  0.00000000E+00  0.00000000E+00  0.00000000E+00
  0.00000000E+00  0.00000000E+00  0.00000000E+00
  0.00000000E+00  0.00000000E+00  0.00000000E+00
  0.00000000E+00  0.00000000E+00  0.00000000E+00
  0.00000000E+00  0.00000000E+00  0.00000000E+00
  0.00000000E+00  0.00000000E+00  0.00000000E+00
  0.00000000E+00  0.00000000E+00  0.00000000E+00
  0.00000000E+00  0.00000000E+00  0.00000000E+00
  0.00000000E+00  0.00000000E+00  0.00000000E+00
  0.00000000E+00  0.00000000E+00  0.00000000E+00
  0.00000000E+00  0.00000000E+00  0.00000000E+00
  0.00000000E+00  0.00000000E+00  0.00000000E+00
  0.00000000E+00  0.00000000E+00  0.00000000E+00
  0.00000000E+00  0.00000000E+00  0.00000000E+00
  0.00000000E+00  0.00000000E+00  0.00000000E+00
  0.00000000E+00  0.00000000E+00  0.00000000E+00
  0.00000000E+00  0.00000000E+00  0.00000000E+00
  0.00000000E+00  0.00000000E+00  0.00000000E+00
  0.00000000E+00  0.00000000E+00  0.00000000E+00
  0.00000000E+00  0.00000000E+00  0.00000000E+00
  0.00000000E+00  0.00000000E+00  0.00000000E+00
  0.00000000E+00  0.00000000E+00  0.00000000E+00
  0.00000000E+00  0.00000000E+00  0.00000000E+00
  0.00000000E+00  0.00000000E+00  0.00000000E+00
  0.00000000E+00  0.00000000E+00  0.00000000E+00
  0.00000000E+00  0.00000000E+00  0.00000000E+00
  0.00000000E+00  0.00000000E+00  0.00000000E+00
  0.00000000E+00  0.00000000E+00  0.00000000E+00
  0.00000000E+00  0.00000000E+00  0.00000000E+00
  0.00000000E+00  0.00000000E+00  0.00000000E+00
  0.00000000E+00  0.00000000E+00  0.00000000E+00
  0.00000000E+00  0.00000000E+00  0.00000000E+00
  0.00000000E+00  0.00000000E+00  0.00000000E+00
  0.00000000E+00  0.00000000E+00  0.00000000E+00
  0.00000000E+00  0.00000000E+00  0.00000000E+00
  0.00000000E+00  0.00000000E+00  0.00000000E+00
  0.00000000E+00  0.00000000E+00  0.00000000E+00
  0.00000000E+00  0.00000000E+00  0.00000000E+00
  0.00000000E+00  0.00000000E+00  0.00000000E+00
  0.00000000E+00  0.00000000E+00  0.00000000E+00
  0.00000000E+00  0.00000000E+00  0.00000000E+00
  0.00000000E+00  0.00000000E+00  0.00000000E+00
  0.00000000E+00  0.00000000E+00  0.00000000E+00
  0.00000000E+00  0.00000000E+00  0.00000000E+00
  0.00000000E+00  0.00000000E+00  0.00000000E+00
  0.00000000E+00  0.00000000E+00  0.00000000E+00
  0.00000000E+00  0.00000000E+00  0.00000000E+00
  0.00000000E+00  0.00000000E+00  0.00000000E+00
  0.00000000E+00  0.00000000E+00  0.00000000E+00
  0.00000000E+00  0.00000000E+00  0.00000000E+00
  0.00000000E+00  0.00000000E+00  0.00000000E+00
  0.00000000E+00  0.00000000E+00  0.00000000E+00
  0.00000000E+00  0.00000000E+00  0.00000000E+00
  0.00000000E+00  0.00000000E+00  0.00000000E+00
  0.00000000E+00  0.00000000E+00  0.00000000E+00
  0.00000000E+00  0.00000000E+00  0.00000000E+00
  0.00000000E+00  0.00000000E+00  0.00000000E+00
  0.00000000E+00  0.00000000E+00  0.00000000E+00
  0.00000000E+00  0.00000000E+00  0.00000000E+00
  0.00000000E+00  0.00000000E+00  0.00000000E+00
  0.00000000E+00  0.00000000E+00  0.00000000E+00
  0.00000000E+00  0.00000000E+00  0.00000000E+00
  0.00000000E+00  0.00000000E+00  0.00000000E+00
  0.00000000E+00  0.00000000E+00  0.00000000E+00
  0.00000000E+00  0.00000000E+00  0.00000000E+00
  0.00000000E+00  0.00000000E+00  0.00000000E+00
  0.00000000E+00  0.00000000E+00  0.00000000E+00
  0.00000000E+00  0.00000000E+00  0.00000000E+00
  0.00000000E+00  0.00000000E+00  0.00000000E+00
  0.00000000E+00  0.00000000E+00  0.00000000E+00
  0.00000000E+00  0.00000000E+00  0.00000000E+00
  0.00000000E+00  0.00000000E+00  0.00000000E+00
  0.00000000E+00  0.00000000E+00  0.00000000E+00
  0.00000000E+00  0.00000000E+00  0.00000000E+00
  0.00000000E+00  0.00000000E+00  0.00000000E+00
  0.00000000E+00  0.00000000E+00  0.00000000E+00
  0.00000000E+00  0.00000000E+00  0.00000000E+00
  0.00000000E+00  0.00000000E+00  0.00000000E+00
  0.00000000E+00  0.00000000E+00  0.00000000E+00
  0.00000000E+00  0.00000000E+00  0.00000000E+00
  0.00000000E+00  0.00000000E+00  0.00000000E+00
  0.00000000E+00  0.00000000E+00  0.00000000E+00
  0.00000000E+00  0.00000000E+00  0.00000000E+00
  0.00000000E+00  0.00000000E+00  0.00000000E+00
  0.00000000E+00  0.00000000E+00  0.00000000E+00
  0.00000000E+00  0.00000000E+00  0.00000000E+00
  0.00000000E+00  0.00000000E+00  0.00000000E+00
  0.00000000E+00  0.00000000E+00  0.00000000E+00
  0.00000000E+00  0.00000000E+00  0.00000000E+00
  0.00000000E+00  0.00000000E+00  0.00000000E+00
  0.00000000E+00  0.00000000E+00  0.00000000E+00
  0.00000000E+00  0.00000000E+00  0.00000000E+00
  0.00000000E+00  0.00000000E+00  0.00000000E+00
  0.00000000E+00  0.00000000E+00  0.00000000E+00
  0.00000000E+00  0.00000000E+00  0.00000000E+00
  0.00000000E+00  0.00000000E+00  0.00000000E+00
  0.00000000E+00  0.00000000E+00  0.00000000E+00
  0.00000000E+00  0.00000000E+00  0.00000000E+00
  0.00000000E+00  0.00000000E+00  0.00000000E+00
  0.00000000E+00  0.00000000E+00  0.00000000E+00
  0.00000000E+00  0.00000000E+00  0.00000000E+00
  0.00000000E+00  0.00000000E+00  0.00000000E+00
  0.00000000E+00  0.00000000E+00  0.00000000E+00
  0.00000000E+00  0.00000000E+00  0.00000000E+00
  0.00000000E+00  0.00000000E+00  0.00000000E+00
  0.00000000E+00  0.00000000E+00  0.00000000E+00
  0.00000000E+00  0.00000000E+00  0.00000000E+00
  0.00000000E+00  0.00000000E+00  0.00000000E+00
  0.00000000E+00  0.00000000E+00  0.00000000E+00
  0.00000000E+00  0.00000000E+00  0.00000000E+00
  0.00000000E+00  0.00000000E+00  0.00000000E+00
  0.00000000E+00  0.00000000E+00  0.00000000E+00
  0.00000000E+00  0.00000000E+00  0.00000000E+00
  0.00000000E+00  0.00000000E+00  0.00000000E+00
