In O H                                  
   1.00000000000000     
    14.4942117030500004    0.0000000000000000    0.0000000000000000
    -7.2471058515250002   12.5523555426710001    0.0000000000000000
     0.0000000000000000    0.0000000000000000   26.8344742987830003
   In   O    H 
    48    72     1
Selective dynamics
Direct
  0.2828124356452121  0.0159409193730895  0.1055289021670260   T   T   T
  0.2439865331116488  0.2318255746265931  0.1020270655532846   T   T   T
  0.7381360928671254  0.2200944695978866  0.1060751192068540   T   T   T
  0.9927523714486566  0.2589895040619679  0.1021196162118696   T   T   T
  0.2710037093543815  0.5101655121986041  0.1020913663737622   T   T   T
  0.4868236527860094  0.7649066969311028  0.1057548185172023   T   T   T
  0.9986242194825016  0.0075350866045152  0.1114238045042910   T   T   T
  0.0139047214193934  0.5046265689120943  0.1117326588420217   T   T   T
  0.4956838885514312  0.4890925573457592  0.1114043808800233   T   T   T
  0.5028219541567986  0.0002480121392085  0.0987205120093944   T   T   T
  0.5161969652889370  0.2392647177023694  0.1100404360224015   T   T   T
  0.7236481660596500  0.4877074458438739  0.1203844108426448   T   T   T
  0.0156001563479444  0.7340042466438413  0.1204394210687269   T   T   T
  0.2641138045292650  0.7748591750845920  0.1107645409468789   T   T   T
  0.7691293670612340  0.7797131527336038  0.1204299248738133   T   T   T
  0.7280288982171981  0.9871361183849692  0.1106271628095078   T   T   T
  0.1579413045505810  0.0923996143069754  0.2115727551093490   T   T   T
  0.9397263355233474  0.3456760687653389  0.2117991672689411   T   T   T
  0.4108868443147176  0.5640312476260697  0.2110819016394008   T   T   T
  0.9030712831828488  0.5577348214235840  0.2150005098755604   T   T   T
  0.6598552395370592  0.6003501739086071  0.2146613705963970   T   T   T
  0.9458083996207658  0.8436325714990345  0.2146502394358713   T   T   T
  0.6693914100603500  0.3340149464020806  0.2202552607459741   T   T   T
  0.1696860544245903  0.8338699783181758  0.2202117045574657   T   T   T
  0.6689613608846590  0.8334850208019947  0.2200647596250847   T   T   T
  0.1691158927226907  0.3339905301226720  0.2198901455836080   T   T   T
  0.6786091253750793  0.0666838422286460  0.2249304726782949   T   T   T
  0.4370999203063148  0.1089219385038056  0.2238059505252933   T   T   T
  0.9275471780283946  0.1045142331893162  0.2274927479192245   T   T   T
  0.3979807925731189  0.3215957522619247  0.2279423427499229   T   T   T
  0.1812006909153432  0.5747548145839966  0.2288294142700285   T   T   T
  0.3933993432617489  0.8236929905368604  0.2250140371524351   T   T   T
  0.6164486197815809  0.1797536541520519  0.3203196218084842   T   T   T
  0.8237691799900686  0.4289047207844258  0.3293018192721167   T   T   T
  0.6122222848899255  0.6814739791194157  0.3290558449565011   T   T   T
  0.0748986888874628  0.8932458107690502  0.3289173235502248   T   T   T
  0.5694869319772627  0.8875432550354175  0.3205812000189993   T   T   T
  0.3228448963464448  0.9313668222934427  0.3206200619492218   T   T   T
  0.3350529995435975  0.1602567430014727  0.3274240213136242   T   T   T
  0.8405143079189867  0.1777250988114725  0.3285441338719565   T   T   T
  0.3403808933752823  0.6617429464415647  0.3291002067506761   T   T   T
  0.8370492723182607  0.6672879998420060  0.3408777037588490   T   T   T
  0.0553155493069510  0.1512744538078720  0.3364520889996716   T   T   T
  0.3537493576776661  0.4201130364760475  0.3370397815167492   T   T   T
  0.0939021096241894  0.4354758678257295  0.3381185808347112   T   T   T
  0.6025588698001885  0.4481158599591931  0.3347428605639699   T   T   T
  0.0560408008618590  0.6516136817880973  0.3348362906614945   T   T   T
  0.8504875847128562  0.9007796178286512  0.3343175928705047   T   T   T
  0.5887005820969073  0.1621039286552837  0.0690464795581947   T   T   T
  0.3409952334364463  0.9241022944710997  0.0691888933544632   T   T   T
  0.5787606739697746  0.9146307166925117  0.0691650634028452   T   T   T
  0.8322832503425698  0.1484594915421517  0.0831534163032173   T   T   T
  0.3546739834705155  0.1820271536492441  0.0828948721790860   T   T   T
  0.3209619569866681  0.6706621094064613  0.0830471055651594   T   T   T
  0.5689916349844624  0.4023150372820040  0.0884887941901214   T   T   T
  0.1011273936580050  0.6647605881613933  0.0888340994671518   T   T   T
  0.8384518719424374  0.9344062072036038  0.0886959798793230   T   T   T
  0.0763116289954210  0.1734907544628560  0.0871779371160681   T   T   T
  0.3294771656859017  0.4007368632898253  0.0873585108466907   T   T   T
  0.1019804707068617  0.4266802047900934  0.0873643473282338   T   T   T
  0.8915272721556160  0.5615781747390463  0.1218923343160763   T   T   T
  0.6751171714424233  0.6116616231470159  0.1221066849884985   T   T   T
  0.9418011279287740  0.8282666746462275  0.1220810239286465   T   T   T
  0.1623487433733904  0.0562342247779112  0.1300562683645450   T   T   T
  0.8989905868464978  0.3408400022331149  0.1304126975438374   T   T   T
  0.4469434805788465  0.6040187618313078  0.1297980419589227   T   T   T
  0.6882790046466425  0.3250299733223397  0.1401396288099308   T   T   T
  0.6412740435170868  0.8141786410241241  0.1400038269607305   T   T   T
  0.1782137721749149  0.8617769588666228  0.1401867656724035   T   T   T
  0.4300457245890323  0.0782355079953373  0.1470642115380546   T   T   T
  0.6528011529798619  0.0731730705883094  0.1477829227919467   T   T   T
  0.4250592092430940  0.8497289206477874  0.1478247695601137   T   T   T
  0.0134683503100151  0.2514567538963377  0.1819922035217096   T   T   T
  0.2507184774833299  0.2590129225576358  0.1820447043996407   T   T   T
  0.2438774625226404  0.4898397131185335  0.1819879026319082   T   T   T
  0.9836420277556059  0.0072979779430123  0.1922860576410764   T   T   T
  0.4963245810200794  0.4743372875873035  0.1921542463140047   T   T   T
  0.0284177633995272  0.5202277880562585  0.1924255075050630   T   T   T
  0.5046565616940727  0.2743443912522989  0.1981403623282081   T   T   T
  0.2287242064872878  0.7284846570306700  0.1980668210324510   T   T   T
  0.7740703450975733  0.9978539836686792  0.1973098952359623   T   T   T
  0.7344107518268936  0.5066993868140490  0.2011086713174734   T   T   T
  0.9967353531237387  0.7259699323006310  0.2011858099380343   T   T   T
  0.7776400782169001  0.7692465433179522  0.2011836510729484   T   T   T
  0.6043704241121206  0.1603162176726214  0.2398481627456112   T   T   T
  0.5609951833896430  0.8987427820053102  0.2400621118338526   T   T   T
  0.3434247747798037  0.9422704753652066  0.2401063597217467   T   T   T
  0.8334409889131033  0.3928762805870672  0.2435978563189236   T   T   T
  0.5639265454720270  0.6687480187228093  0.2429756118604912   T   T   T
  0.1107645244355131  0.9396402982448877  0.2432332168274724   T   T   T
  0.3118117933817224  0.1472479866023659  0.2484478165350351   T   T   T
  0.8412367851797108  0.1927198210091762  0.2482148874714235   T   T   T
  0.3561723812438395  0.6611888040020082  0.2486779558244199   T   T   T
  0.0979988890580666  0.1789316374983526  0.2599347477375593   T   T   T
  0.0873534761369983  0.4073083112988409  0.2589654361195918   T   T   T
  0.3255024604499176  0.4150362499984468  0.2589951133008571   T   T   T
  0.6855340087030044  0.5938306215257677  0.2923097208723072   T   T   T
  0.9100630979062668  0.5899832683027868  0.2925463327391796   T   T   T
  0.9144316486347721  0.8187571913852936  0.2923840168526834   T   T   T
  0.6467981336518565  0.3408344686074812  0.3006348270788477   T   T   T
  0.1615077423708924  0.8065939185378399  0.3007636880628926   T   T   T
  0.6967614142930103  0.8526609211391728  0.3004670914016474   T   T   T
  0.8882106942241437  0.0611120153805478  0.3092174007514980   T   T   T
  0.4333909798840870  0.3257458682051025  0.3134998711821620   T   T   T
  0.1765540896867157  0.6107878082563386  0.3109257117731094   T   T   T
  0.6638385771260740  0.0556464496112491  0.3199177216573290   T   T   T
  0.4491700437359390  0.1029785640913367  0.3210022810029524   T   T   T
  0.3974698513404357  0.8389186247938628  0.3202916393114418   T   T   T
  0.2322497099973161  0.2403538616309862  0.3604039801551936   T   T   T
  0.0067458270785401  0.2652764317188194  0.3540110702054375   T   T   T
  0.2626308738510506  0.4939790026115654  0.3542585996238779   T   T   T
  0.2382280211517495  0.0043698532775481  0.3522183279791565   T   T   T
  0.7701593881780853  0.2666171111147426  0.3522524837869503   T   T   T
  0.5004876458375135  0.7318279075249025  0.3519774424008377   T   T   T
  0.9843066490272159  0.4857156845406267  0.3580517656868604   T   T   T
  0.5113901194760021  0.5214146870956203  0.3591620693302088   T   T   T
  0.0167053650378303  0.9968590876107215  0.3585270839159139   T   T   T
  0.7521137367618514  0.5058375859759749  0.3710762153687324   T   T   T
  0.7605605375314376  0.7520248707633592  0.3712364134664097   T   T   T
  0.9985033487002033  0.7444461876489171  0.3710223036532921   T   T   T
  0.2300978376420628  0.2316698130431545  0.3966161009040183   T   T   T
 
  0.00000000E+00  0.00000000E+00  0.00000000E+00
  0.00000000E+00  0.00000000E+00  0.00000000E+00
  0.00000000E+00  0.00000000E+00  0.00000000E+00
  0.00000000E+00  0.00000000E+00  0.00000000E+00
  0.00000000E+00  0.00000000E+00  0.00000000E+00
  0.00000000E+00  0.00000000E+00  0.00000000E+00
  0.00000000E+00  0.00000000E+00  0.00000000E+00
  0.00000000E+00  0.00000000E+00  0.00000000E+00
  0.00000000E+00  0.00000000E+00  0.00000000E+00
  0.00000000E+00  0.00000000E+00  0.00000000E+00
  0.00000000E+00  0.00000000E+00  0.00000000E+00
  0.00000000E+00  0.00000000E+00  0.00000000E+00
  0.00000000E+00  0.00000000E+00  0.00000000E+00
  0.00000000E+00  0.00000000E+00  0.00000000E+00
  0.00000000E+00  0.00000000E+00  0.00000000E+00
  0.00000000E+00  0.00000000E+00  0.00000000E+00
  0.00000000E+00  0.00000000E+00  0.00000000E+00
  0.00000000E+00  0.00000000E+00  0.00000000E+00
  0.00000000E+00  0.00000000E+00  0.00000000E+00
  0.00000000E+00  0.00000000E+00  0.00000000E+00
  0.00000000E+00  0.00000000E+00  0.00000000E+00
  0.00000000E+00  0.00000000E+00  0.00000000E+00
  0.00000000E+00  0.00000000E+00  0.00000000E+00
  0.00000000E+00  0.00000000E+00  0.00000000E+00
  0.00000000E+00  0.00000000E+00  0.00000000E+00
  0.00000000E+00  0.00000000E+00  0.00000000E+00
  0.00000000E+00  0.00000000E+00  0.00000000E+00
  0.00000000E+00  0.00000000E+00  0.00000000E+00
  0.00000000E+00  0.00000000E+00  0.00000000E+00
  0.00000000E+00  0.00000000E+00  0.00000000E+00
  0.00000000E+00  0.00000000E+00  0.00000000E+00
  0.00000000E+00  0.00000000E+00  0.00000000E+00
  0.00000000E+00  0.00000000E+00  0.00000000E+00
  0.00000000E+00  0.00000000E+00  0.00000000E+00
  0.00000000E+00  0.00000000E+00  0.00000000E+00
  0.00000000E+00  0.00000000E+00  0.00000000E+00
  0.00000000E+00  0.00000000E+00  0.00000000E+00
  0.00000000E+00  0.00000000E+00  0.00000000E+00
  0.00000000E+00  0.00000000E+00  0.00000000E+00
  0.00000000E+00  0.00000000E+00  0.00000000E+00
  0.00000000E+00  0.00000000E+00  0.00000000E+00
  0.00000000E+00  0.00000000E+00  0.00000000E+00
  0.00000000E+00  0.00000000E+00  0.00000000E+00
  0.00000000E+00  0.00000000E+00  0.00000000E+00
  0.00000000E+00  0.00000000E+00  0.00000000E+00
  0.00000000E+00  0.00000000E+00  0.00000000E+00
  0.00000000E+00  0.00000000E+00  0.00000000E+00
  0.00000000E+00  0.00000000E+00  0.00000000E+00
  0.00000000E+00  0.00000000E+00  0.00000000E+00
  0.00000000E+00  0.00000000E+00  0.00000000E+00
  0.00000000E+00  0.00000000E+00  0.00000000E+00
  0.00000000E+00  0.00000000E+00  0.00000000E+00
  0.00000000E+00  0.00000000E+00  0.00000000E+00
  0.00000000E+00  0.00000000E+00  0.00000000E+00
  0.00000000E+00  0.00000000E+00  0.00000000E+00
  0.00000000E+00  0.00000000E+00  0.00000000E+00
  0.00000000E+00  0.00000000E+00  0.00000000E+00
  0.00000000E+00  0.00000000E+00  0.00000000E+00
  0.00000000E+00  0.00000000E+00  0.00000000E+00
  0.00000000E+00  0.00000000E+00  0.00000000E+00
  0.00000000E+00  0.00000000E+00  0.00000000E+00
  0.00000000E+00  0.00000000E+00  0.00000000E+00
  0.00000000E+00  0.00000000E+00  0.00000000E+00
  0.00000000E+00  0.00000000E+00  0.00000000E+00
  0.00000000E+00  0.00000000E+00  0.00000000E+00
  0.00000000E+00  0.00000000E+00  0.00000000E+00
  0.00000000E+00  0.00000000E+00  0.00000000E+00
  0.00000000E+00  0.00000000E+00  0.00000000E+00
  0.00000000E+00  0.00000000E+00  0.00000000E+00
  0.00000000E+00  0.00000000E+00  0.00000000E+00
  0.00000000E+00  0.00000000E+00  0.00000000E+00
  0.00000000E+00  0.00000000E+00  0.00000000E+00
  0.00000000E+00  0.00000000E+00  0.00000000E+00
  0.00000000E+00  0.00000000E+00  0.00000000E+00
  0.00000000E+00  0.00000000E+00  0.00000000E+00
  0.00000000E+00  0.00000000E+00  0.00000000E+00
  0.00000000E+00  0.00000000E+00  0.00000000E+00
  0.00000000E+00  0.00000000E+00  0.00000000E+00
  0.00000000E+00  0.00000000E+00  0.00000000E+00
  0.00000000E+00  0.00000000E+00  0.00000000E+00
  0.00000000E+00  0.00000000E+00  0.00000000E+00
  0.00000000E+00  0.00000000E+00  0.00000000E+00
  0.00000000E+00  0.00000000E+00  0.00000000E+00
  0.00000000E+00  0.00000000E+00  0.00000000E+00
  0.00000000E+00  0.00000000E+00  0.00000000E+00
  0.00000000E+00  0.00000000E+00  0.00000000E+00
  0.00000000E+00  0.00000000E+00  0.00000000E+00
  0.00000000E+00  0.00000000E+00  0.00000000E+00
  0.00000000E+00  0.00000000E+00  0.00000000E+00
  0.00000000E+00  0.00000000E+00  0.00000000E+00
  0.00000000E+00  0.00000000E+00  0.00000000E+00
  0.00000000E+00  0.00000000E+00  0.00000000E+00
  0.00000000E+00  0.00000000E+00  0.00000000E+00
  0.00000000E+00  0.00000000E+00  0.00000000E+00
  0.00000000E+00  0.00000000E+00  0.00000000E+00
  0.00000000E+00  0.00000000E+00  0.00000000E+00
  0.00000000E+00  0.00000000E+00  0.00000000E+00
  0.00000000E+00  0.00000000E+00  0.00000000E+00
  0.00000000E+00  0.00000000E+00  0.00000000E+00
  0.00000000E+00  0.00000000E+00  0.00000000E+00
  0.00000000E+00  0.00000000E+00  0.00000000E+00
  0.00000000E+00  0.00000000E+00  0.00000000E+00
  0.00000000E+00  0.00000000E+00  0.00000000E+00
  0.00000000E+00  0.00000000E+00  0.00000000E+00
  0.00000000E+00  0.00000000E+00  0.00000000E+00
  0.00000000E+00  0.00000000E+00  0.00000000E+00
  0.00000000E+00  0.00000000E+00  0.00000000E+00
  0.00000000E+00  0.00000000E+00  0.00000000E+00
  0.00000000E+00  0.00000000E+00  0.00000000E+00
  0.00000000E+00  0.00000000E+00  0.00000000E+00
  0.00000000E+00  0.00000000E+00  0.00000000E+00
  0.00000000E+00  0.00000000E+00  0.00000000E+00
  0.00000000E+00  0.00000000E+00  0.00000000E+00
  0.00000000E+00  0.00000000E+00  0.00000000E+00
  0.00000000E+00  0.00000000E+00  0.00000000E+00
  0.00000000E+00  0.00000000E+00  0.00000000E+00
  0.00000000E+00  0.00000000E+00  0.00000000E+00
  0.00000000E+00  0.00000000E+00  0.00000000E+00
  0.00000000E+00  0.00000000E+00  0.00000000E+00
  0.00000000E+00  0.00000000E+00  0.00000000E+00
  0.00000000E+00  0.00000000E+00  0.00000000E+00
