In O H                                  
   1.00000000000000     
    14.4942117030500004    0.0000000000000000    0.0000000000000000
    -7.2471058515250002   12.5523555426710001    0.0000000000000000
     0.0000000000000000    0.0000000000000000   26.8344742987830003
   In   O    H 
    48    72     1
Selective dynamics
Direct
  0.2832823402683856  0.0162745542642184  0.1062317198536479   T   T   T
  0.2443480245074746  0.2320545603132196  0.1019139737948743   T   T   T
  0.7381477778318914  0.2201484211672830  0.1064436089504516   T   T   T
  0.9927260573674880  0.2589540302898639  0.1024953982273636   T   T   T
  0.2710766282974901  0.5101636179864585  0.1018599337364575   T   T   T
  0.4868678145413906  0.7648221061732178  0.1062267331230474   T   T   T
  0.9985855815279441  0.0081125852184288  0.1115566754909618   T   T   T
  0.0140260297650111  0.5043805482331626  0.1117898579549439   T   T   T
  0.4949051578938837  0.4884302726498166  0.1111687880717006   T   T   T
  0.5028118390984792  0.0004679706654804  0.0998666354427342   T   T   T
  0.5157815998254298  0.2389801082455381  0.1115480889398837   T   T   T
  0.7235490745206731  0.4872593437521094  0.1206464125107654   T   T   T
  0.0157227257344461  0.7338625904873607  0.1201984436066880   T   T   T
  0.2643056183055498  0.7749863282733759  0.1106800090774421   T   T   T
  0.7691025216822639  0.7800353202573326  0.1206940000000449   T   T   T
  0.7283849505206341  0.9875488760728059  0.1110853859437815   T   T   T
  0.1582738210945981  0.0941990997904059  0.2110653160093219   T   T   T
  0.9399761010409714  0.3455679603819797  0.2121339073219905   T   T   T
  0.4102835970462414  0.5625965902616282  0.2113993333370792   T   T   T
  0.9030409807918880  0.5578379320934839  0.2145045760918094   T   T   T
  0.6582260127593643  0.5999852685750043  0.2132718333023653   T   T   T
  0.9458217421952561  0.8434350060722606  0.2137087617513642   T   T   T
  0.6693189720689797  0.3338341005738685  0.2208195738141832   T   T   T
  0.1695230615531777  0.8331071465796015  0.2201668518380656   T   T   T
  0.6690190785987271  0.8340872953735614  0.2204250967043147   T   T   T
  0.1694168543099901  0.3334834861281857  0.2201599964927954   T   T   T
  0.6792332732950584  0.0676273399590118  0.2255797451464965   T   T   T
  0.4353192137140867  0.1095975038796524  0.2259282334554321   T   T   T
  0.9285439287105747  0.1048872632565535  0.2288377084925427   T   T   T
  0.3982780283381904  0.3218633225923287  0.2287010962273739   T   T   T
  0.1821050015575852  0.5736976211675004  0.2280070941311093   T   T   T
  0.3931822688579540  0.8236593689526795  0.2256703167203193   T   T   T
  0.6153320360809408  0.1793042317971106  0.3207965250117261   T   T   T
  0.8226165217473234  0.4276056959642827  0.3294956386114267   T   T   T
  0.6083549428424674  0.6792858349716699  0.3287243273268743   T   T   T
  0.0797158453861940  0.9030925091657358  0.3249530795601251   T   T   T
  0.5695041185642564  0.8882860948083352  0.3208019098023191   T   T   T
  0.3242433883711422  0.9338117736683851  0.3212684499216409   T   T   T
  0.3261373939327064  0.1638285400469776  0.3292359160936897   T   T   T
  0.8425917070993078  0.1776924718176556  0.3293196781896578   T   T   T
  0.3415718466275483  0.6594181835572758  0.3288839477562370   T   T   T
  0.8287959314049297  0.6636830293532758  0.3358033492861496   T   T   T
  0.0680014457985091  0.1581560264609065  0.3382798264966091   T   T   T
  0.3457395489444182  0.4082108512075687  0.3383752150728837   T   T   T
  0.0953612603329665  0.4342405069596872  0.3382300588291380   T   T   T
  0.5989858725018111  0.4458869679929595  0.3345605086613004   T   T   T
  0.0584879784592453  0.6478286612951917  0.3313197784863904   T   T   T
  0.8515576630748746  0.9021855631585302  0.3339419920232315   T   T   T
  0.5881052246378689  0.1620919903739200  0.0701201067003079   T   T   T
  0.3415331479205462  0.9246853102505366  0.0696838483166483   T   T   T
  0.5786383074890660  0.9148337081633628  0.0699048662895641   T   T   T
  0.8322887413519722  0.1486203042852267  0.0833078178294273   T   T   T
  0.3551058411139614  0.1820593019458630  0.0833855747926817   T   T   T
  0.3210519136473403  0.6708384906190435  0.0831659368897417   T   T   T
  0.5691106131755291  0.4020770564613937  0.0888335253110016   T   T   T
  0.1012677399863333  0.6646221142387087  0.0888114524911690   T   T   T
  0.8384029775957274  0.9344582310260959  0.0888311327221425   T   T   T
  0.0764703375604582  0.1737256669642681  0.0872411874889002   T   T   T
  0.3293847445599814  0.4008129544361358  0.0866372215532434   T   T   T
  0.1018496045215750  0.4266227217102045  0.0872709004700408   T   T   T
  0.8915442219356228  0.5616577806851873  0.1221094324582322   T   T   T
  0.6752246540232537  0.6118454255481924  0.1225963049406742   T   T   T
  0.9416041575908224  0.8278166858723846  0.1224456439841783   T   T   T
  0.1620359626455839  0.0560871883383186  0.1299921087228433   T   T   T
  0.8988503713017063  0.3410412106428031  0.1307715488916100   T   T   T
  0.4469356962693158  0.6038116816718576  0.1297970255889513   T   T   T
  0.6889345963901228  0.3253446938279143  0.1408412515723023   T   T   T
  0.6416963042548601  0.8145337056647430  0.1404271041622532   T   T   T
  0.1779012150417252  0.8613453488183445  0.1402334949828389   T   T   T
  0.4291306116681564  0.0774912776735089  0.1487465562506415   T   T   T
  0.6534075509769870  0.0733874037633424  0.1483593461709396   T   T   T
  0.4245506376251351  0.8492650714639787  0.1484023120270290   T   T   T
  0.0131804826995473  0.2515970507100118  0.1821094837323209   T   T   T
  0.2518336035917571  0.2601032158675760  0.1816159983578168   T   T   T
  0.2436168216429565  0.4893536451062845  0.1815753345979618   T   T   T
  0.9830552914117545  0.0062219417525014  0.1923433847534384   T   T   T
  0.4959987547220185  0.4739471646259943  0.1917165379936363   T   T   T
  0.0285277647558451  0.5205532189656824  0.1925083088838489   T   T   T
  0.5047931151253801  0.2744702308919899  0.1983279528042598   T   T   T
  0.2282798892979352  0.7281799239961807  0.1986693878868349   T   T   T
  0.7748763767567990  0.9984788651577834  0.1981837115897306   T   T   T
  0.7348326201590046  0.5071651362371372  0.2014793413182547   T   T   T
  0.9970090713494397  0.7257784065031285  0.2012502862231888   T   T   T
  0.7779006588519226  0.7693254398769902  0.2017450347547963   T   T   T
  0.6041457206590978  0.1603753727298592  0.2402545536587462   T   T   T
  0.5609556926122038  0.8992408862210591  0.2403778108715258   T   T   T
  0.3405550070029206  0.9406596037352659  0.2409139653196336   T   T   T
  0.8351199208102243  0.3952606786370837  0.2444206863420522   T   T   T
  0.5637440918412804  0.6692664175786573  0.2427968898446134   T   T   T
  0.1111613835058797  0.9399532457114366  0.2423765463207878   T   T   T
  0.3096119216923732  0.1465144336078265  0.2489221539223461   T   T   T
  0.8415874188251290  0.1932701421244165  0.2489697035287430   T   T   T
  0.3569070787248667  0.6612490378573788  0.2484706054506829   T   T   T
  0.0955485524482029  0.1774888101760693  0.2589061601900545   T   T   T
  0.0874736671098652  0.4074264402323780  0.2589043058891637   T   T   T
  0.3252864224991015  0.4156213972297540  0.2589195155314554   T   T   T
  0.6812765261529689  0.5910894272968849  0.2910313857279587   T   T   T
  0.9117957635166345  0.5944880307534993  0.2930810730520786   T   T   T
  0.9174305246263345  0.8167828274608794  0.2928785755821731   T   T   T
  0.6498147109525357  0.3417684997635149  0.3011899708031939   T   T   T
  0.1547956922959277  0.8054394410802097  0.3026741563309788   T   T   T
  0.6970725385564143  0.8526147366714252  0.3007262788081445   T   T   T
  0.8926270542541244  0.0633596320590958  0.3108374597819104   T   T   T
  0.4393376042820357  0.3266978961633620  0.3106271165006582   T   T   T
  0.1784695697548659  0.6104403811603675  0.3096605088467247   T   T   T
  0.6639126010385724  0.0558040861197262  0.3202862930858572   T   T   T
  0.4472477645664571  0.1057994861331018  0.3200555770813323   T   T   T
  0.3959589495436309  0.8384303139099581  0.3201817231120838   T   T   T
  0.2365558582267496  0.2401570003817006  0.3540767849802937   T   T   T
  0.0086131544266182  0.2662715114933004  0.3542228359067779   T   T   T
  0.2627315542511536  0.4940178502369798  0.3541799681121220   T   T   T
  0.2381278565362358  0.0029052546300649  0.3527283200602457   T   T   T
  0.7704948483062414  0.2659075833514318  0.3526243633421048   T   T   T
  0.5010614259673842  0.7335182847838178  0.3526073994051231   T   T   T
  0.9850135414372486  0.4868502942725827  0.3576377955862999   T   T   T
  0.5065763081695412  0.5190572077639188  0.3580070260816690   T   T   T
  0.0174964706067206  0.9962026602852337  0.3577816345856398   T   T   T
  0.7518569496427039  0.5074995368213703  0.3701614902836439   T   T   T
  0.7607377967055623  0.7511227502325993  0.3698341859253839   T   T   T
  0.9958899726182100  0.7425871279702918  0.3743072821706923   T   T   T
  0.9922603182911418  0.7463936189829394  0.4104653713819031   T   T   T
 
  0.00000000E+00  0.00000000E+00  0.00000000E+00
  0.00000000E+00  0.00000000E+00  0.00000000E+00
  0.00000000E+00  0.00000000E+00  0.00000000E+00
  0.00000000E+00  0.00000000E+00  0.00000000E+00
  0.00000000E+00  0.00000000E+00  0.00000000E+00
  0.00000000E+00  0.00000000E+00  0.00000000E+00
  0.00000000E+00  0.00000000E+00  0.00000000E+00
  0.00000000E+00  0.00000000E+00  0.00000000E+00
  0.00000000E+00  0.00000000E+00  0.00000000E+00
  0.00000000E+00  0.00000000E+00  0.00000000E+00
  0.00000000E+00  0.00000000E+00  0.00000000E+00
  0.00000000E+00  0.00000000E+00  0.00000000E+00
  0.00000000E+00  0.00000000E+00  0.00000000E+00
  0.00000000E+00  0.00000000E+00  0.00000000E+00
  0.00000000E+00  0.00000000E+00  0.00000000E+00
  0.00000000E+00  0.00000000E+00  0.00000000E+00
  0.00000000E+00  0.00000000E+00  0.00000000E+00
  0.00000000E+00  0.00000000E+00  0.00000000E+00
  0.00000000E+00  0.00000000E+00  0.00000000E+00
  0.00000000E+00  0.00000000E+00  0.00000000E+00
  0.00000000E+00  0.00000000E+00  0.00000000E+00
  0.00000000E+00  0.00000000E+00  0.00000000E+00
  0.00000000E+00  0.00000000E+00  0.00000000E+00
  0.00000000E+00  0.00000000E+00  0.00000000E+00
  0.00000000E+00  0.00000000E+00  0.00000000E+00
  0.00000000E+00  0.00000000E+00  0.00000000E+00
  0.00000000E+00  0.00000000E+00  0.00000000E+00
  0.00000000E+00  0.00000000E+00  0.00000000E+00
  0.00000000E+00  0.00000000E+00  0.00000000E+00
  0.00000000E+00  0.00000000E+00  0.00000000E+00
  0.00000000E+00  0.00000000E+00  0.00000000E+00
  0.00000000E+00  0.00000000E+00  0.00000000E+00
  0.00000000E+00  0.00000000E+00  0.00000000E+00
  0.00000000E+00  0.00000000E+00  0.00000000E+00
  0.00000000E+00  0.00000000E+00  0.00000000E+00
  0.00000000E+00  0.00000000E+00  0.00000000E+00
  0.00000000E+00  0.00000000E+00  0.00000000E+00
  0.00000000E+00  0.00000000E+00  0.00000000E+00
  0.00000000E+00  0.00000000E+00  0.00000000E+00
  0.00000000E+00  0.00000000E+00  0.00000000E+00
  0.00000000E+00  0.00000000E+00  0.00000000E+00
  0.00000000E+00  0.00000000E+00  0.00000000E+00
  0.00000000E+00  0.00000000E+00  0.00000000E+00
  0.00000000E+00  0.00000000E+00  0.00000000E+00
  0.00000000E+00  0.00000000E+00  0.00000000E+00
  0.00000000E+00  0.00000000E+00  0.00000000E+00
  0.00000000E+00  0.00000000E+00  0.00000000E+00
  0.00000000E+00  0.00000000E+00  0.00000000E+00
  0.00000000E+00  0.00000000E+00  0.00000000E+00
  0.00000000E+00  0.00000000E+00  0.00000000E+00
  0.00000000E+00  0.00000000E+00  0.00000000E+00
  0.00000000E+00  0.00000000E+00  0.00000000E+00
  0.00000000E+00  0.00000000E+00  0.00000000E+00
  0.00000000E+00  0.00000000E+00  0.00000000E+00
  0.00000000E+00  0.00000000E+00  0.00000000E+00
  0.00000000E+00  0.00000000E+00  0.00000000E+00
  0.00000000E+00  0.00000000E+00  0.00000000E+00
  0.00000000E+00  0.00000000E+00  0.00000000E+00
  0.00000000E+00  0.00000000E+00  0.00000000E+00
  0.00000000E+00  0.00000000E+00  0.00000000E+00
  0.00000000E+00  0.00000000E+00  0.00000000E+00
  0.00000000E+00  0.00000000E+00  0.00000000E+00
  0.00000000E+00  0.00000000E+00  0.00000000E+00
  0.00000000E+00  0.00000000E+00  0.00000000E+00
  0.00000000E+00  0.00000000E+00  0.00000000E+00
  0.00000000E+00  0.00000000E+00  0.00000000E+00
  0.00000000E+00  0.00000000E+00  0.00000000E+00
  0.00000000E+00  0.00000000E+00  0.00000000E+00
  0.00000000E+00  0.00000000E+00  0.00000000E+00
  0.00000000E+00  0.00000000E+00  0.00000000E+00
  0.00000000E+00  0.00000000E+00  0.00000000E+00
  0.00000000E+00  0.00000000E+00  0.00000000E+00
  0.00000000E+00  0.00000000E+00  0.00000000E+00
  0.00000000E+00  0.00000000E+00  0.00000000E+00
  0.00000000E+00  0.00000000E+00  0.00000000E+00
  0.00000000E+00  0.00000000E+00  0.00000000E+00
  0.00000000E+00  0.00000000E+00  0.00000000E+00
  0.00000000E+00  0.00000000E+00  0.00000000E+00
  0.00000000E+00  0.00000000E+00  0.00000000E+00
  0.00000000E+00  0.00000000E+00  0.00000000E+00
  0.00000000E+00  0.00000000E+00  0.00000000E+00
  0.00000000E+00  0.00000000E+00  0.00000000E+00
  0.00000000E+00  0.00000000E+00  0.00000000E+00
  0.00000000E+00  0.00000000E+00  0.00000000E+00
  0.00000000E+00  0.00000000E+00  0.00000000E+00
  0.00000000E+00  0.00000000E+00  0.00000000E+00
  0.00000000E+00  0.00000000E+00  0.00000000E+00
  0.00000000E+00  0.00000000E+00  0.00000000E+00
  0.00000000E+00  0.00000000E+00  0.00000000E+00
  0.00000000E+00  0.00000000E+00  0.00000000E+00
  0.00000000E+00  0.00000000E+00  0.00000000E+00
  0.00000000E+00  0.00000000E+00  0.00000000E+00
  0.00000000E+00  0.00000000E+00  0.00000000E+00
  0.00000000E+00  0.00000000E+00  0.00000000E+00
  0.00000000E+00  0.00000000E+00  0.00000000E+00
  0.00000000E+00  0.00000000E+00  0.00000000E+00
  0.00000000E+00  0.00000000E+00  0.00000000E+00
  0.00000000E+00  0.00000000E+00  0.00000000E+00
  0.00000000E+00  0.00000000E+00  0.00000000E+00
  0.00000000E+00  0.00000000E+00  0.00000000E+00
  0.00000000E+00  0.00000000E+00  0.00000000E+00
  0.00000000E+00  0.00000000E+00  0.00000000E+00
  0.00000000E+00  0.00000000E+00  0.00000000E+00
  0.00000000E+00  0.00000000E+00  0.00000000E+00
  0.00000000E+00  0.00000000E+00  0.00000000E+00
  0.00000000E+00  0.00000000E+00  0.00000000E+00
  0.00000000E+00  0.00000000E+00  0.00000000E+00
  0.00000000E+00  0.00000000E+00  0.00000000E+00
  0.00000000E+00  0.00000000E+00  0.00000000E+00
  0.00000000E+00  0.00000000E+00  0.00000000E+00
  0.00000000E+00  0.00000000E+00  0.00000000E+00
  0.00000000E+00  0.00000000E+00  0.00000000E+00
  0.00000000E+00  0.00000000E+00  0.00000000E+00
  0.00000000E+00  0.00000000E+00  0.00000000E+00
  0.00000000E+00  0.00000000E+00  0.00000000E+00
  0.00000000E+00  0.00000000E+00  0.00000000E+00
  0.00000000E+00  0.00000000E+00  0.00000000E+00
  0.00000000E+00  0.00000000E+00  0.00000000E+00
  0.00000000E+00  0.00000000E+00  0.00000000E+00
  0.00000000E+00  0.00000000E+00  0.00000000E+00
  0.00000000E+00  0.00000000E+00  0.00000000E+00
