In O H                                  
   1.00000000000000     
    14.4942117030500004    0.0000000000000000    0.0000000000000000
    -7.2471058515250002   12.5523555426710001    0.0000000000000000
     0.0000000000000000    0.0000000000000000   26.8344742987830003
   In   O    H 
    48    72     1
Selective dynamics
Direct
  0.2833231969365819  0.0161961101834275  0.1055208745981224   T   T   T
  0.2446038278780467  0.2322219493236679  0.1019542877140470   T   T   T
  0.7384257902040865  0.2202780294406939  0.1062799781203176   T   T   T
  0.9929779480498846  0.2591053367424592  0.1022002771457217   T   T   T
  0.2711662543732093  0.5102876231804401  0.1020061460802326   T   T   T
  0.4867864839891876  0.7646747406221737  0.1055990937071654   T   T   T
  0.9990440619508029  0.0079716411446408  0.1110541697906692   T   T   T
  0.0139636373722520  0.5042912645877478  0.1119328464450549   T   T   T
  0.4956350638410463  0.4891900777564773  0.1116911782369469   T   T   T
  0.5029383344151267  0.0003761505048063  0.0992729950026984   T   T   T
  0.5160616688333568  0.2391725747276983  0.1107637349737455   T   T   T
  0.7233975726455317  0.4874590536062206  0.1207030534100501   T   T   T
  0.0151447128310577  0.7333362681129422  0.1203991567131699   T   T   T
  0.2642088710978318  0.7745927406813774  0.1101868533786070   T   T   T
  0.7692253040884960  0.7797216454487098  0.1206327646202428   T   T   T
  0.7283132249814334  0.9874926010361506  0.1105531357705573   T   T   T
  0.1587567694066112  0.0928278800849114  0.2109956596438526   T   T   T
  0.9400092667623404  0.3449807371841712  0.2121914232599845   T   T   T
  0.4099666909710502  0.5626978680867134  0.2116429080071423   T   T   T
  0.9026426647558287  0.5570147622987559  0.2149188671851751   T   T   T
  0.6595709587144829  0.6001501500662737  0.2147779319282579   T   T   T
  0.9459070778836860  0.8442331563665246  0.2138209987797445   T   T   T
  0.6691402476641881  0.3333032832240686  0.2205494191581631   T   T   T
  0.1705594798535156  0.8329793272855261  0.2191604588333177   T   T   T
  0.6670996498676083  0.8329325158705794  0.2197216816452827   T   T   T
  0.1696692483750450  0.3340806674583226  0.2196396777374110   T   T   T
  0.6791148674184020  0.0670121645806459  0.2255664714098149   T   T   T
  0.4357727110533428  0.1094894343318913  0.2248533767811827   T   T   T
  0.9288937529534813  0.1042261746457584  0.2282351026146326   T   T   T
  0.3985238548942073  0.3218702123195236  0.2287514342889679   T   T   T
  0.1812142715483357  0.5743262986422955  0.2287261513562871   T   T   T
  0.3930254930212761  0.8233731951860067  0.2248729872611136   T   T   T
  0.6143093855671431  0.1793125723132251  0.3209374039471264   T   T   T
  0.8219592187832000  0.4279791977511975  0.3296055008218154   T   T   T
  0.6077337879294340  0.6786200314648141  0.3288677333903868   T   T   T
  0.0771080996383802  0.8872901297513107  0.3251164514092036   T   T   T
  0.5669715006453189  0.8874520119401113  0.3207063902302025   T   T   T
  0.3241157388483284  0.9337009400374853  0.3204155979841951   T   T   T
  0.3250089442406611  0.1623166418800093  0.3287131998993925   T   T   T
  0.8407991974660430  0.1767776007946719  0.3298112570934889   T   T   T
  0.3396646399278531  0.6594614019093367  0.3292686920001192   T   T   T
  0.8353426058914141  0.6668241730126867  0.3409616669444380   T   T   T
  0.0704526008232183  0.1680399252082234  0.3375371083876350   T   T   T
  0.3459812540250100  0.4087906662965764  0.3382617182447615   T   T   T
  0.0943016663242455  0.4371962507265634  0.3382041415971370   T   T   T
  0.6004032204942128  0.4473708601604550  0.3344621411640279   T   T   T
  0.0548827914371253  0.6497746175567206  0.3342059445328585   T   T   T
  0.8439678106513012  0.9000930784743562  0.3334394193582376   T   T   T
  0.5885992183587661  0.1619828683330088  0.0696338155275275   T   T   T
  0.3414674667244518  0.9243710829860400  0.0691513659202855   T   T   T
  0.5789608612452102  0.9149580322689127  0.0693009074723644   T   T   T
  0.8324523461879887  0.1485226897424015  0.0830320328240577   T   T   T
  0.3551231055201449  0.1821908573997676  0.0828643258303850   T   T   T
  0.3212159965601863  0.6706559801070379  0.0824690335233471   T   T   T
  0.5689499281028434  0.4022769870898527  0.0887707360728679   T   T   T
  0.1008291690041748  0.6642781281454755  0.0886904711180612   T   T   T
  0.8385498450523233  0.9344501836878371  0.0888209929724908   T   T   T
  0.0767696289366654  0.1738223671789760  0.0870732883997162   T   T   T
  0.3297467022284212  0.4010745433367904  0.0871923086514600   T   T   T
  0.1020437623480874  0.4266787745372415  0.0872769446124344   T   T   T
  0.8913546906429483  0.5613299383892263  0.1221738509023249   T   T   T
  0.6753228294294961  0.6118599302182254  0.1224075946083446   T   T   T
  0.9416650143280417  0.8280401652243778  0.1222144038201629   T   T   T
  0.1624667784527540  0.0560032549496180  0.1297281086258531   T   T   T
  0.8990810521604128  0.3406525892492147  0.1306729093397850   T   T   T
  0.4468925113712278  0.6041643753438586  0.1301039867242488   T   T   T
  0.6885629440103080  0.3250366797073513  0.1404473697819636   T   T   T
  0.6415916782081891  0.8146299186604963  0.1398740369567844   T   T   T
  0.1778555134126081  0.8613130997606744  0.1395763786560928   T   T   T
  0.4296164131971544  0.0779439850424673  0.1477565922237187   T   T   T
  0.6539759004827618  0.0733732395701090  0.1482672355344097   T   T   T
  0.4250256996366636  0.8494750663613345  0.1476637357409030   T   T   T
  0.0132089282056318  0.2512906993240811  0.1819495382295218   T   T   T
  0.2512266575280880  0.2592680249068350  0.1818036842236024   T   T   T
  0.2434898431822742  0.4899924414898874  0.1817345899581298   T   T   T
  0.9842355267743425  0.0070795387732776  0.1918918568000713   T   T   T
  0.4966655200467497  0.4743931489765933  0.1922752537280552   T   T   T
  0.0283833134682859  0.5202330813208645  0.1925905858935630   T   T   T
  0.5046538953817478  0.2741851097378024  0.1980589290443907   T   T   T
  0.2289666224422502  0.7276704811365735  0.1972375958120790   T   T   T
  0.7748188090323759  0.9977000422107831  0.1985563115851723   T   T   T
  0.7341567564501242  0.5064512708173280  0.2014603347438594   T   T   T
  0.9963320085157390  0.7259531062542581  0.2014271278385115   T   T   T
  0.7776156268565394  0.7693582559996174  0.2017002729803567   T   T   T
  0.6037012660629660  0.1595530005842818  0.2404782663211397   T   T   T
  0.5602871547456745  0.8990929161709568  0.2400149064311317   T   T   T
  0.3430410330099457  0.9418017822441257  0.2399331380232238   T   T   T
  0.8337680998524097  0.3922073284991616  0.2435771200894200   T   T   T
  0.5634760176012140  0.6685904097470887  0.2430242697949886   T   T   T
  0.1111596482016061  0.9385995638994087  0.2426006559767152   T   T   T
  0.3100548752092711  0.1462643001996928  0.2485262565389713   T   T   T
  0.8429252838855379  0.1911624288832706  0.2497112411893358   T   T   T
  0.3560810459913973  0.6612179200126116  0.2488199127711916   T   T   T
  0.0951825968694722  0.1769781210479178  0.2590003871847456   T   T   T
  0.0872937162655594  0.4068338905190352  0.2590291350902872   T   T   T
  0.3247693038133481  0.4150524306129906  0.2588771719967078   T   T   T
  0.6860128223728224  0.5954821304866023  0.2926844616107965   T   T   T
  0.9084354192305462  0.5903120514914852  0.2924630697666535   T   T   T
  0.9182689887086319  0.8283221712964371  0.2931408438203228   T   T   T
  0.6489890604861313  0.3417944326059093  0.3007934183695154   T   T   T
  0.1622663071153599  0.8035017772851565  0.2996057521643082   T   T   T
  0.6935737621983240  0.8524615222252592  0.2999983250393273   T   T   T
  0.8982059650042770  0.0626520590841062  0.3132558834187636   T   T   T
  0.4381709534289165  0.3261689324794439  0.3110236405537131   T   T   T
  0.1759074444390365  0.6102717505846652  0.3106469985197073   T   T   T
  0.6644302400335019  0.0553649617049756  0.3203559895921171   T   T   T
  0.4460663706854856  0.1050615370396215  0.3211853998156136   T   T   T
  0.3962222693907462  0.8387322950603926  0.3204733838090464   T   T   T
  0.2353745680493255  0.2394886241916073  0.3547395700289453   T   T   T
  0.0060946415970961  0.2682103877385624  0.3548667682473581   T   T   T
  0.2615194133618429  0.4930105804096384  0.3539798215323314   T   T   T
  0.2335319336573342  0.0008083051084699  0.3512150566810600   T   T   T
  0.7689389258630108  0.2654333186668589  0.3526011664647165   T   T   T
  0.4997452508744377  0.7322939558525535  0.3524531811611026   T   T   T
  0.9827645126189291  0.4856252067786226  0.3580337520673583   T   T   T
  0.5065374886464993  0.5188194572801418  0.3577995127199374   T   T   T
  0.0212562664517845  0.9999070018075394  0.3652686497352446   T   T   T
  0.7504730899423810  0.5061157818578088  0.3712021679613640   T   T   T
  0.7598437602581749  0.7532516271393197  0.3709294812616677   T   T   T
  0.9975963678057849  0.7444677933130108  0.3701152872907134   T   T   T
  0.0364598248159266  0.9963549211016356  0.4004902721097595   T   T   T
 
  0.00000000E+00  0.00000000E+00  0.00000000E+00
  0.00000000E+00  0.00000000E+00  0.00000000E+00
  0.00000000E+00  0.00000000E+00  0.00000000E+00
  0.00000000E+00  0.00000000E+00  0.00000000E+00
  0.00000000E+00  0.00000000E+00  0.00000000E+00
  0.00000000E+00  0.00000000E+00  0.00000000E+00
  0.00000000E+00  0.00000000E+00  0.00000000E+00
  0.00000000E+00  0.00000000E+00  0.00000000E+00
  0.00000000E+00  0.00000000E+00  0.00000000E+00
  0.00000000E+00  0.00000000E+00  0.00000000E+00
  0.00000000E+00  0.00000000E+00  0.00000000E+00
  0.00000000E+00  0.00000000E+00  0.00000000E+00
  0.00000000E+00  0.00000000E+00  0.00000000E+00
  0.00000000E+00  0.00000000E+00  0.00000000E+00
  0.00000000E+00  0.00000000E+00  0.00000000E+00
  0.00000000E+00  0.00000000E+00  0.00000000E+00
  0.00000000E+00  0.00000000E+00  0.00000000E+00
  0.00000000E+00  0.00000000E+00  0.00000000E+00
  0.00000000E+00  0.00000000E+00  0.00000000E+00
  0.00000000E+00  0.00000000E+00  0.00000000E+00
  0.00000000E+00  0.00000000E+00  0.00000000E+00
  0.00000000E+00  0.00000000E+00  0.00000000E+00
  0.00000000E+00  0.00000000E+00  0.00000000E+00
  0.00000000E+00  0.00000000E+00  0.00000000E+00
  0.00000000E+00  0.00000000E+00  0.00000000E+00
  0.00000000E+00  0.00000000E+00  0.00000000E+00
  0.00000000E+00  0.00000000E+00  0.00000000E+00
  0.00000000E+00  0.00000000E+00  0.00000000E+00
  0.00000000E+00  0.00000000E+00  0.00000000E+00
  0.00000000E+00  0.00000000E+00  0.00000000E+00
  0.00000000E+00  0.00000000E+00  0.00000000E+00
  0.00000000E+00  0.00000000E+00  0.00000000E+00
  0.00000000E+00  0.00000000E+00  0.00000000E+00
  0.00000000E+00  0.00000000E+00  0.00000000E+00
  0.00000000E+00  0.00000000E+00  0.00000000E+00
  0.00000000E+00  0.00000000E+00  0.00000000E+00
  0.00000000E+00  0.00000000E+00  0.00000000E+00
  0.00000000E+00  0.00000000E+00  0.00000000E+00
  0.00000000E+00  0.00000000E+00  0.00000000E+00
  0.00000000E+00  0.00000000E+00  0.00000000E+00
  0.00000000E+00  0.00000000E+00  0.00000000E+00
  0.00000000E+00  0.00000000E+00  0.00000000E+00
  0.00000000E+00  0.00000000E+00  0.00000000E+00
  0.00000000E+00  0.00000000E+00  0.00000000E+00
  0.00000000E+00  0.00000000E+00  0.00000000E+00
  0.00000000E+00  0.00000000E+00  0.00000000E+00
  0.00000000E+00  0.00000000E+00  0.00000000E+00
  0.00000000E+00  0.00000000E+00  0.00000000E+00
  0.00000000E+00  0.00000000E+00  0.00000000E+00
  0.00000000E+00  0.00000000E+00  0.00000000E+00
  0.00000000E+00  0.00000000E+00  0.00000000E+00
  0.00000000E+00  0.00000000E+00  0.00000000E+00
  0.00000000E+00  0.00000000E+00  0.00000000E+00
  0.00000000E+00  0.00000000E+00  0.00000000E+00
  0.00000000E+00  0.00000000E+00  0.00000000E+00
  0.00000000E+00  0.00000000E+00  0.00000000E+00
  0.00000000E+00  0.00000000E+00  0.00000000E+00
  0.00000000E+00  0.00000000E+00  0.00000000E+00
  0.00000000E+00  0.00000000E+00  0.00000000E+00
  0.00000000E+00  0.00000000E+00  0.00000000E+00
  0.00000000E+00  0.00000000E+00  0.00000000E+00
  0.00000000E+00  0.00000000E+00  0.00000000E+00
  0.00000000E+00  0.00000000E+00  0.00000000E+00
  0.00000000E+00  0.00000000E+00  0.00000000E+00
  0.00000000E+00  0.00000000E+00  0.00000000E+00
  0.00000000E+00  0.00000000E+00  0.00000000E+00
  0.00000000E+00  0.00000000E+00  0.00000000E+00
  0.00000000E+00  0.00000000E+00  0.00000000E+00
  0.00000000E+00  0.00000000E+00  0.00000000E+00
  0.00000000E+00  0.00000000E+00  0.00000000E+00
  0.00000000E+00  0.00000000E+00  0.00000000E+00
  0.00000000E+00  0.00000000E+00  0.00000000E+00
  0.00000000E+00  0.00000000E+00  0.00000000E+00
  0.00000000E+00  0.00000000E+00  0.00000000E+00
  0.00000000E+00  0.00000000E+00  0.00000000E+00
  0.00000000E+00  0.00000000E+00  0.00000000E+00
  0.00000000E+00  0.00000000E+00  0.00000000E+00
  0.00000000E+00  0.00000000E+00  0.00000000E+00
  0.00000000E+00  0.00000000E+00  0.00000000E+00
  0.00000000E+00  0.00000000E+00  0.00000000E+00
  0.00000000E+00  0.00000000E+00  0.00000000E+00
  0.00000000E+00  0.00000000E+00  0.00000000E+00
  0.00000000E+00  0.00000000E+00  0.00000000E+00
  0.00000000E+00  0.00000000E+00  0.00000000E+00
  0.00000000E+00  0.00000000E+00  0.00000000E+00
  0.00000000E+00  0.00000000E+00  0.00000000E+00
  0.00000000E+00  0.00000000E+00  0.00000000E+00
  0.00000000E+00  0.00000000E+00  0.00000000E+00
  0.00000000E+00  0.00000000E+00  0.00000000E+00
  0.00000000E+00  0.00000000E+00  0.00000000E+00
  0.00000000E+00  0.00000000E+00  0.00000000E+00
  0.00000000E+00  0.00000000E+00  0.00000000E+00
  0.00000000E+00  0.00000000E+00  0.00000000E+00
  0.00000000E+00  0.00000000E+00  0.00000000E+00
  0.00000000E+00  0.00000000E+00  0.00000000E+00
  0.00000000E+00  0.00000000E+00  0.00000000E+00
  0.00000000E+00  0.00000000E+00  0.00000000E+00
  0.00000000E+00  0.00000000E+00  0.00000000E+00
  0.00000000E+00  0.00000000E+00  0.00000000E+00
  0.00000000E+00  0.00000000E+00  0.00000000E+00
  0.00000000E+00  0.00000000E+00  0.00000000E+00
  0.00000000E+00  0.00000000E+00  0.00000000E+00
  0.00000000E+00  0.00000000E+00  0.00000000E+00
  0.00000000E+00  0.00000000E+00  0.00000000E+00
  0.00000000E+00  0.00000000E+00  0.00000000E+00
  0.00000000E+00  0.00000000E+00  0.00000000E+00
  0.00000000E+00  0.00000000E+00  0.00000000E+00
  0.00000000E+00  0.00000000E+00  0.00000000E+00
  0.00000000E+00  0.00000000E+00  0.00000000E+00
  0.00000000E+00  0.00000000E+00  0.00000000E+00
  0.00000000E+00  0.00000000E+00  0.00000000E+00
  0.00000000E+00  0.00000000E+00  0.00000000E+00
  0.00000000E+00  0.00000000E+00  0.00000000E+00
  0.00000000E+00  0.00000000E+00  0.00000000E+00
  0.00000000E+00  0.00000000E+00  0.00000000E+00
  0.00000000E+00  0.00000000E+00  0.00000000E+00
  0.00000000E+00  0.00000000E+00  0.00000000E+00
  0.00000000E+00  0.00000000E+00  0.00000000E+00
  0.00000000E+00  0.00000000E+00  0.00000000E+00
  0.00000000E+00  0.00000000E+00  0.00000000E+00
  0.00000000E+00  0.00000000E+00  0.00000000E+00
