In O H                                  
   1.00000000000000     
    14.4942117030500004    0.0000000000000000    0.0000000000000000
    -7.2471058515250002   12.5523555426710001    0.0000000000000000
     0.0000000000000000    0.0000000000000000   26.8344742987830003
   In   O    H 
    48    72     1
Selective dynamics
Direct
  0.2830494438470867  0.0160904187712626  0.1065021635105458   T   T   T
  0.2442449199330275  0.2317548703686693  0.1025468529676424   T   T   T
  0.7383666273961379  0.2201210108511458  0.1062159464781656   T   T   T
  0.9930644423911814  0.2589581010026468  0.1018502457750348   T   T   T
  0.2709421893037408  0.5100900274072984  0.1019270578790246   T   T   T
  0.4867459354316625  0.7648268393510035  0.1061952257962097   T   T   T
  0.9988794242014576  0.0077368325240610  0.1117653879898567   T   T   T
  0.0147077044655088  0.5045408327480159  0.1111403001779558   T   T   T
  0.4950185629235242  0.4884914479272863  0.1115725606595814   T   T   T
  0.5026984379176583  0.0003423110400123  0.0997240204145606   T   T   T
  0.5157664984856534  0.2388601459123927  0.1109379165170501   T   T   T
  0.7231844741463876  0.4872202613266110  0.1206712203389301   T   T   T
  0.0158492503192192  0.7343484649166889  0.1205893048644478   T   T   T
  0.2641398933070185  0.7748716712677044  0.1115105536128914   T   T   T
  0.7692799753924194  0.7800361591305371  0.1202447886251284   T   T   T
  0.7280403040305869  0.9872619942346477  0.1106282161542984   T   T   T
  0.1575482565764996  0.0923843852178561  0.2121970279778372   T   T   T
  0.9405836717237576  0.3457657024451221  0.2114257092229136   T   T   T
  0.4089340509343182  0.5620665543016381  0.2111262853274732   T   T   T
  0.9031374247248037  0.5562633697261343  0.2133447115740681   T   T   T
  0.6597785836996529  0.6005196646746249  0.2136983474901582   T   T   T
  0.9453489510361991  0.8432253896065912  0.2145198523287118   T   T   T
  0.6690792676136161  0.3328491480544180  0.2203718872164899   T   T   T
  0.1692136295413022  0.8334484450819082  0.2208606726164029   T   T   T
  0.6699746748742320  0.8344719723504338  0.2201427152802115   T   T   T
  0.1696885616810334  0.3339234132807252  0.2201803846505150   T   T   T
  0.6794576379489277  0.0675173304191971  0.2256066579743588   T   T   T
  0.4355630721274489  0.1096578238113574  0.2255262805966278   T   T   T
  0.9294487355820444  0.1064346733072634  0.2279836259846006   T   T   T
  0.3983107962449819  0.3216114130910454  0.2288245320402916   T   T   T
  0.1812594094607652  0.5744608982268775  0.2287150980768279   T   T   T
  0.3935121741342246  0.8238641610954407  0.2258264583022991   T   T   T
  0.6146883457469645  0.1792404838560970  0.3208012198417245   T   T   T
  0.8236872180886222  0.4271307467802842  0.3287744024479817   T   T   T
  0.6000117792090177  0.6746655192083024  0.3249146397757664   T   T   T
  0.0753948514339323  0.8929486277935128  0.3296078964113994   T   T   T
  0.5691938719171221  0.8885808225497622  0.3212884337655915   T   T   T
  0.3237303762710342  0.9339835990177444  0.3208847628574528   T   T   T
  0.3253425728055739  0.1628503571796476  0.3294137136823819   T   T   T
  0.8436839245937096  0.1802673473815587  0.3288592361046318   T   T   T
  0.3393106845623582  0.6603114024546242  0.3292308398263318   T   T   T
  0.8393861176758056  0.6631800593429988  0.3359011163570471   T   T   T
  0.0687675610553717  0.1591062116528454  0.3382260903078714   T   T   T
  0.3448678426477667  0.4077616420817598  0.3382773757072859   T   T   T
  0.0948964680785984  0.4355509455154751  0.3383580509268556   T   T   T
  0.6008297734164387  0.4474117791486677  0.3339159867313706   T   T   T
  0.0571160743722585  0.6510333888176766  0.3346633118613745   T   T   T
  0.8552509370116776  0.9087977054940440  0.3312427917919779   T   T   T
  0.5883865622470151  0.1617871144439993  0.0697500020135870   T   T   T
  0.3409995017190701  0.9240506958407744  0.0700527513503023   T   T   T
  0.5783683927800212  0.9146687944722033  0.0695736228917679   T   T   T
  0.8322503619705168  0.1482038352863412  0.0831613739809704   T   T   T
  0.3546961550664756  0.1817429486579428  0.0832899074694249   T   T   T
  0.3209172455633524  0.6709569208755048  0.0834205223637138   T   T   T
  0.5687845542376980  0.4021049239852250  0.0887759486895192   T   T   T
  0.1011017058118689  0.6651102585990932  0.0888246253057326   T   T   T
  0.8386318141115178  0.9347844874089706  0.0888032737547594   T   T   T
  0.0766065625531843  0.1732726132132042  0.0872351219393693   T   T   T
  0.3294186970558036  0.4007207113534638  0.0872557412693334   T   T   T
  0.1022263799952394  0.4265612277112186  0.0865599838658783   T   T   T
  0.8912817120862373  0.5614567229620847  0.1224710173390056   T   T   T
  0.6753272041358758  0.6119345175962048  0.1225362805188410   T   T   T
  0.9415072741630305  0.8279640116494750  0.1220436536439095   T   T   T
  0.1622273327937696  0.0559491420715901  0.1307912721256959   T   T   T
  0.8993021672609589  0.3411617568978309  0.1298092388341162   T   T   T
  0.4469718029388333  0.6039292224690955  0.1300056266543135   T   T   T
  0.6886548300917282  0.3252136788083757  0.1403409936913852   T   T   T
  0.6417550339654828  0.8146525367669123  0.1402227447720095   T   T   T
  0.1777806058612963  0.8616720605774960  0.1408773503935924   T   T   T
  0.4298980251089268  0.0781701927744104  0.1482970136001563   T   T   T
  0.6537485982026969  0.0732099202699808  0.1483393411990183   T   T   T
  0.4256779814848510  0.8497491562158435  0.1486761756987033   T   T   T
  0.0139137613534225  0.2523656942877456  0.1815509155907730   T   T   T
  0.2516319418140496  0.2595722773699991  0.1821451921614959   T   T   T
  0.2430966140140783  0.4897554381686983  0.1816379731991110   T   T   T
  0.9826514224487645  0.0060077816207090  0.1924953172748701   T   T   T
  0.4969533599827102  0.4748420798144090  0.1923509717408614   T   T   T
  0.0291835793959362  0.5201027320771090  0.1917116939514613   T   T   T
  0.5047136745840681  0.2743576772267431  0.1981739133999551   T   T   T
  0.2287476628565547  0.7284520915996403  0.1982949253437069   T   T   T
  0.7749890101694463  0.9981520300818179  0.1986526202103595   T   T   T
  0.7338648715791558  0.5065788427110123  0.2016889055323850   T   T   T
  0.9959290542135614  0.7256783989691988  0.2014278107627435   T   T   T
  0.7773717411962239  0.7693519433129244  0.2012786182132074   T   T   T
  0.6038046700103230  0.1596511176701701  0.2403716047018691   T   T   T
  0.5624100079761605  0.8979992681064587  0.2409175067046504   T   T   T
  0.3427001417894165  0.9417662768614080  0.2403409552275460   T   T   T
  0.8338298240288292  0.3924659784096426  0.2427928440260379   T   T   T
  0.5632128638353663  0.6692210117880867  0.2423602516027097   T   T   T
  0.1078276509270295  0.9378422051475296  0.2444775645767522   T   T   T
  0.3098664384952325  0.1462275440402564  0.2490177545034622   T   T   T
  0.8418296536613962  0.1936586439878718  0.2484188033985506   T   T   T
  0.3566115772015802  0.6611947895206260  0.2489092388456348   T   T   T
  0.0956842028121589  0.1780127438214197  0.2589160459523566   T   T   T
  0.0874815774649863  0.4076481916563792  0.2589290899766000   T   T   T
  0.3256369587355105  0.4160291137786519  0.2589188136065659   T   T   T
  0.6863677142504924  0.5987639354919089  0.2928948511835643   T   T   T
  0.9119214876431111  0.5882096219238292  0.2911066160002150   T   T   T
  0.9086364320257546  0.8152749653389723  0.2931011013669101   T   T   T
  0.6504138969877024  0.3424892664939813  0.3007056614043683   T   T   T
  0.1612079121077456  0.8059832711764177  0.3012429755004302   T   T   T
  0.6976132289919144  0.8474516625744850  0.3026342099618761   T   T   T
  0.8926614203833085  0.0660902526945406  0.3096197510862925   T   T   T
  0.4396594196467624  0.3272427861025025  0.3108629811072839   T   T   T
  0.1763025568648539  0.6106758516763838  0.3106283754095184   T   T   T
  0.6646720994421170  0.0555765933363424  0.3202388659049080   T   T   T
  0.4472241521325486  0.1060430260755971  0.3204318830517073   T   T   T
  0.3972269554806905  0.8394692253736797  0.3201757404118996   T   T   T
  0.2367520124964552  0.2403336118676146  0.3542631565801230   T   T   T
  0.0090296122652694  0.2667521745308180  0.3541971695089679   T   T   T
  0.2629207699803068  0.4944369231709508  0.3540871878947704   T   T   T
  0.2371164320326942  0.0025645282160318  0.3527218693866926   T   T   T
  0.7694749683423834  0.2655541438658486  0.3525977341777776   T   T   T
  0.5001811709702533  0.7332422388154054  0.3527180313943060   T   T   T
  0.9839181621211227  0.4854475020631921  0.3580321276549534   T   T   T
  0.5068810500534890  0.5193741106191674  0.3577290108138451   T   T   T
  0.0161527841319321  0.9961326920084613  0.3576421771392863   T   T   T
  0.7518998945032594  0.5076608894170865  0.3698878588827206   T   T   T
  0.7606548674378711  0.7516638805945862  0.3743480614335066   T   T   T
  0.9955255045002882  0.7422999408932542  0.3702980004166014   T   T   T
  0.7569980468778996  0.7446358334315292  0.4105229712015427   T   T   T
 
  0.00000000E+00  0.00000000E+00  0.00000000E+00
  0.00000000E+00  0.00000000E+00  0.00000000E+00
  0.00000000E+00  0.00000000E+00  0.00000000E+00
  0.00000000E+00  0.00000000E+00  0.00000000E+00
  0.00000000E+00  0.00000000E+00  0.00000000E+00
  0.00000000E+00  0.00000000E+00  0.00000000E+00
  0.00000000E+00  0.00000000E+00  0.00000000E+00
  0.00000000E+00  0.00000000E+00  0.00000000E+00
  0.00000000E+00  0.00000000E+00  0.00000000E+00
  0.00000000E+00  0.00000000E+00  0.00000000E+00
  0.00000000E+00  0.00000000E+00  0.00000000E+00
  0.00000000E+00  0.00000000E+00  0.00000000E+00
  0.00000000E+00  0.00000000E+00  0.00000000E+00
  0.00000000E+00  0.00000000E+00  0.00000000E+00
  0.00000000E+00  0.00000000E+00  0.00000000E+00
  0.00000000E+00  0.00000000E+00  0.00000000E+00
  0.00000000E+00  0.00000000E+00  0.00000000E+00
  0.00000000E+00  0.00000000E+00  0.00000000E+00
  0.00000000E+00  0.00000000E+00  0.00000000E+00
  0.00000000E+00  0.00000000E+00  0.00000000E+00
  0.00000000E+00  0.00000000E+00  0.00000000E+00
  0.00000000E+00  0.00000000E+00  0.00000000E+00
  0.00000000E+00  0.00000000E+00  0.00000000E+00
  0.00000000E+00  0.00000000E+00  0.00000000E+00
  0.00000000E+00  0.00000000E+00  0.00000000E+00
  0.00000000E+00  0.00000000E+00  0.00000000E+00
  0.00000000E+00  0.00000000E+00  0.00000000E+00
  0.00000000E+00  0.00000000E+00  0.00000000E+00
  0.00000000E+00  0.00000000E+00  0.00000000E+00
  0.00000000E+00  0.00000000E+00  0.00000000E+00
  0.00000000E+00  0.00000000E+00  0.00000000E+00
  0.00000000E+00  0.00000000E+00  0.00000000E+00
  0.00000000E+00  0.00000000E+00  0.00000000E+00
  0.00000000E+00  0.00000000E+00  0.00000000E+00
  0.00000000E+00  0.00000000E+00  0.00000000E+00
  0.00000000E+00  0.00000000E+00  0.00000000E+00
  0.00000000E+00  0.00000000E+00  0.00000000E+00
  0.00000000E+00  0.00000000E+00  0.00000000E+00
  0.00000000E+00  0.00000000E+00  0.00000000E+00
  0.00000000E+00  0.00000000E+00  0.00000000E+00
  0.00000000E+00  0.00000000E+00  0.00000000E+00
  0.00000000E+00  0.00000000E+00  0.00000000E+00
  0.00000000E+00  0.00000000E+00  0.00000000E+00
  0.00000000E+00  0.00000000E+00  0.00000000E+00
  0.00000000E+00  0.00000000E+00  0.00000000E+00
  0.00000000E+00  0.00000000E+00  0.00000000E+00
  0.00000000E+00  0.00000000E+00  0.00000000E+00
  0.00000000E+00  0.00000000E+00  0.00000000E+00
  0.00000000E+00  0.00000000E+00  0.00000000E+00
  0.00000000E+00  0.00000000E+00  0.00000000E+00
  0.00000000E+00  0.00000000E+00  0.00000000E+00
  0.00000000E+00  0.00000000E+00  0.00000000E+00
  0.00000000E+00  0.00000000E+00  0.00000000E+00
  0.00000000E+00  0.00000000E+00  0.00000000E+00
  0.00000000E+00  0.00000000E+00  0.00000000E+00
  0.00000000E+00  0.00000000E+00  0.00000000E+00
  0.00000000E+00  0.00000000E+00  0.00000000E+00
  0.00000000E+00  0.00000000E+00  0.00000000E+00
  0.00000000E+00  0.00000000E+00  0.00000000E+00
  0.00000000E+00  0.00000000E+00  0.00000000E+00
  0.00000000E+00  0.00000000E+00  0.00000000E+00
  0.00000000E+00  0.00000000E+00  0.00000000E+00
  0.00000000E+00  0.00000000E+00  0.00000000E+00
  0.00000000E+00  0.00000000E+00  0.00000000E+00
  0.00000000E+00  0.00000000E+00  0.00000000E+00
  0.00000000E+00  0.00000000E+00  0.00000000E+00
  0.00000000E+00  0.00000000E+00  0.00000000E+00
  0.00000000E+00  0.00000000E+00  0.00000000E+00
  0.00000000E+00  0.00000000E+00  0.00000000E+00
  0.00000000E+00  0.00000000E+00  0.00000000E+00
  0.00000000E+00  0.00000000E+00  0.00000000E+00
  0.00000000E+00  0.00000000E+00  0.00000000E+00
  0.00000000E+00  0.00000000E+00  0.00000000E+00
  0.00000000E+00  0.00000000E+00  0.00000000E+00
  0.00000000E+00  0.00000000E+00  0.00000000E+00
  0.00000000E+00  0.00000000E+00  0.00000000E+00
  0.00000000E+00  0.00000000E+00  0.00000000E+00
  0.00000000E+00  0.00000000E+00  0.00000000E+00
  0.00000000E+00  0.00000000E+00  0.00000000E+00
  0.00000000E+00  0.00000000E+00  0.00000000E+00
  0.00000000E+00  0.00000000E+00  0.00000000E+00
  0.00000000E+00  0.00000000E+00  0.00000000E+00
  0.00000000E+00  0.00000000E+00  0.00000000E+00
  0.00000000E+00  0.00000000E+00  0.00000000E+00
  0.00000000E+00  0.00000000E+00  0.00000000E+00
  0.00000000E+00  0.00000000E+00  0.00000000E+00
  0.00000000E+00  0.00000000E+00  0.00000000E+00
  0.00000000E+00  0.00000000E+00  0.00000000E+00
  0.00000000E+00  0.00000000E+00  0.00000000E+00
  0.00000000E+00  0.00000000E+00  0.00000000E+00
  0.00000000E+00  0.00000000E+00  0.00000000E+00
  0.00000000E+00  0.00000000E+00  0.00000000E+00
  0.00000000E+00  0.00000000E+00  0.00000000E+00
  0.00000000E+00  0.00000000E+00  0.00000000E+00
  0.00000000E+00  0.00000000E+00  0.00000000E+00
  0.00000000E+00  0.00000000E+00  0.00000000E+00
  0.00000000E+00  0.00000000E+00  0.00000000E+00
  0.00000000E+00  0.00000000E+00  0.00000000E+00
  0.00000000E+00  0.00000000E+00  0.00000000E+00
  0.00000000E+00  0.00000000E+00  0.00000000E+00
  0.00000000E+00  0.00000000E+00  0.00000000E+00
  0.00000000E+00  0.00000000E+00  0.00000000E+00
  0.00000000E+00  0.00000000E+00  0.00000000E+00
  0.00000000E+00  0.00000000E+00  0.00000000E+00
  0.00000000E+00  0.00000000E+00  0.00000000E+00
  0.00000000E+00  0.00000000E+00  0.00000000E+00
  0.00000000E+00  0.00000000E+00  0.00000000E+00
  0.00000000E+00  0.00000000E+00  0.00000000E+00
  0.00000000E+00  0.00000000E+00  0.00000000E+00
  0.00000000E+00  0.00000000E+00  0.00000000E+00
  0.00000000E+00  0.00000000E+00  0.00000000E+00
  0.00000000E+00  0.00000000E+00  0.00000000E+00
  0.00000000E+00  0.00000000E+00  0.00000000E+00
  0.00000000E+00  0.00000000E+00  0.00000000E+00
  0.00000000E+00  0.00000000E+00  0.00000000E+00
  0.00000000E+00  0.00000000E+00  0.00000000E+00
  0.00000000E+00  0.00000000E+00  0.00000000E+00
  0.00000000E+00  0.00000000E+00  0.00000000E+00
  0.00000000E+00  0.00000000E+00  0.00000000E+00
  0.00000000E+00  0.00000000E+00  0.00000000E+00
  0.00000000E+00  0.00000000E+00  0.00000000E+00
