In O H                                  
   1.00000000000000     
    14.4942117030500004    0.0000000000000000    0.0000000000000000
    -7.2471058515250002   12.5523555426710001    0.0000000000000000
     0.0000000000000000    0.0000000000000000   26.8344742987830003
   In   O    H 
    48    72     1
Selective dynamics
Direct
  0.2831990710099941  0.0162602001907510  0.1057638208328199   T   T   T
  0.2443241627827769  0.2321177662761910  0.1020908534272005   T   T   T
  0.7382497074026382  0.2203721998164083  0.1055804772698320   T   T   T
  0.9929826618286274  0.2591934344418097  0.1020320073731172   T   T   T
  0.2711889935455965  0.5103109549283154  0.1021397410175077   T   T   T
  0.4869661808526059  0.7648771690835587  0.1060412473954312   T   T   T
  0.9985638210949855  0.0074338481088754  0.1113109320557950   T   T   T
  0.0139651527680780  0.5045736913547373  0.1114438732626892   T   T   T
  0.4957369901050505  0.4891991550598511  0.1117312991383723   T   T   T
  0.5025488783743780  0.0002571268612677  0.0987094768824563   T   T   T
  0.5158527323374105  0.2390687555164095  0.1107434471254345   T   T   T
  0.7234662496683166  0.4875625139943365  0.1204632648338550   T   T   T
  0.0156199668322702  0.7340255879765302  0.1203920703893926   T   T   T
  0.2641879583086802  0.7750753545783281  0.1106548843453442   T   T   T
  0.7691189631732238  0.7795601926332725  0.1204237114389100   T   T   T
  0.7281243238471629  0.9869428772200906  0.1100111204533485   T   T   T
  0.1581953610196546  0.0923340175057394  0.2110791710745348   T   T   T
  0.9396561114350952  0.3452854398892449  0.2116092446090400   T   T   T
  0.4110618259473384  0.5634071445135199  0.2118003654330205   T   T   T
  0.9029935541636115  0.5573187244300342  0.2146530903880864   T   T   T
  0.6598224430082439  0.6000961710451573  0.2149770641828194   T   T   T
  0.9456400180369582  0.8433544909262396  0.2146756670722338   T   T   T
  0.6693305763609769  0.3334542796086303  0.2201839560289156   T   T   T
  0.1696588112128835  0.8342290950312042  0.2200628409519703   T   T   T
  0.6697847020483351  0.8337578290165990  0.2202806743436129   T   T   T
  0.1699493238361799  0.3340517684260631  0.2199361827143285   T   T   T
  0.6768633605986948  0.0659598832268398  0.2237864317590349   T   T   T
  0.4353366695434815  0.1097519872456677  0.2249999949206768   T   T   T
  0.9286966672387249  0.1051790920586920  0.2278584640307066   T   T   T
  0.3985762668904989  0.3218874956447845  0.2288012373788436   T   T   T
  0.1821318655413994  0.5756629666881038  0.2275519856185128   T   T   T
  0.3932347542082624  0.8244813006882820  0.2249319969510269   T   T   T
  0.6135623329577072  0.1802076908718227  0.3205688770039977   T   T   T
  0.8233901632136287  0.4281748559740379  0.3289825225026904   T   T   T
  0.6101474859992995  0.6792447900730446  0.3293001318429700   T   T   T
  0.0743796367125134  0.8909326258996021  0.3290768202389142   T   T   T
  0.5683687112193913  0.8865521978352580  0.3203444761392888   T   T   T
  0.3231190747264522  0.9334839729012858  0.3205816324485999   T   T   T
  0.3264817142585794  0.1626371747334213  0.3290860791958384   T   T   T
  0.8302854078102003  0.1680189744047855  0.3274001906570854   T   T   T
  0.3422923183449348  0.6626220994837643  0.3285773027997486   T   T   T
  0.8353289405413071  0.6660495512960174  0.3408468604542350   T   T   T
  0.0713348545086141  0.1492881591462320  0.3370371281364672   T   T   T
  0.3465982456978966  0.4091435787524039  0.3380926606943180   T   T   T
  0.1010985674199089  0.4478780299164867  0.3365539962197467   T   T   T
  0.6006114218639528  0.4469781839665543  0.3347635949752405   T   T   T
  0.0553159806359930  0.6526191483530193  0.3343372260096526   T   T   T
  0.8505647117395095  0.9004562607979422  0.3348044681830857   T   T   T
  0.5882237076783271  0.1621066369082451  0.0692028966219205   T   T   T
  0.3410365116352196  0.9243450335511494  0.0691831371698033   T   T   T
  0.5784740582777301  0.9142721750635211  0.0690201446464821   T   T   T
  0.8324817535192097  0.1485342084941523  0.0829348311908192   T   T   T
  0.3548254012704893  0.1821469059475309  0.0829981869511812   T   T   T
  0.3211369532455282  0.6707630934176718  0.0831474940953399   T   T   T
  0.5687592731366390  0.4021003670749793  0.0887829992314292   T   T   T
  0.1010707223252787  0.6647597389478341  0.0887165558695055   T   T   T
  0.8384209411578853  0.9342040508301234  0.0884901762342611   T   T   T
  0.0764138001473516  0.1736848768196966  0.0873324723187444   T   T   T
  0.3297093747326600  0.4011147235919099  0.0873659466635553   T   T   T
  0.1021881053629091  0.4268591123770629  0.0871786970338631   T   T   T
  0.8915345644583882  0.5613198111376441  0.1220717406703364   T   T   T
  0.6751200242420500  0.6116384424000725  0.1220247738138298   T   T   T
  0.9415916213618326  0.8280069470888020  0.1219833745870755   T   T   T
  0.1622163834893287  0.0562391552309698  0.1297831505255049   T   T   T
  0.8989619330357972  0.3408363570836649  0.1301069861995385   T   T   T
  0.4468114498258888  0.6040706524794072  0.1304006422950013   T   T   T
  0.6886672755692667  0.3249733400950153  0.1401471760068472   T   T   T
  0.6418378142723050  0.8149294807413489  0.1401660523085677   T   T   T
  0.1779751236376566  0.8618939106567892  0.1400114191739523   T   T   T
  0.4297530359419041  0.0781201466468907  0.1478190808011322   T   T   T
  0.6531474585842461  0.0729871480603561  0.1470499269822725   T   T   T
  0.4254402153989727  0.8501934434844152  0.1477734066372835   T   T   T
  0.0135047372579079  0.2525565563357081  0.1820355690409199   T   T   T
  0.2510430127932928  0.2593243315742061  0.1819859756370737   T   T   T
  0.2430831675152484  0.4897511400177840  0.1820264169141866   T   T   T
  0.9831182064489040  0.0068079986213867  0.1920874926482647   T   T   T
  0.4968793731013436  0.4747210468109773  0.1924096555557483   T   T   T
  0.0288345332958717  0.5195682087573708  0.1923033751301665   T   T   T
  0.5048821913174361  0.2744950269278055  0.1980542187250343   T   T   T
  0.2289340066340770  0.7291155724481798  0.1973844068464685   T   T   T
  0.7747819443476125  0.9984784563930276  0.1981199980277845   T   T   T
  0.7343889611487971  0.5064106991755786  0.2011949332749486   T   T   T
  0.9966742383384009  0.7255207592358289  0.2011461685237837   T   T   T
  0.7774763814108240  0.7688209153938610  0.2011537999283519   T   T   T
  0.6039076551962492  0.1596844989228812  0.2400354032382727   T   T   T
  0.5610502394965228  0.8986373790916860  0.2398685421844464   T   T   T
  0.3428858395902684  0.9421303397342777  0.2400584157748706   T   T   T
  0.8339727325755064  0.3923383790310652  0.2432546976621701   T   T   T
  0.5645513010561179  0.6696445938743184  0.2436052766516737   T   T   T
  0.1099814870351769  0.9392713516680705  0.2429664351078201   T   T   T
  0.3100937845632341  0.1469379438855234  0.2486475096101886   T   T   T
  0.8405298263749945  0.1912923033507003  0.2483963218226771   T   T   T
  0.3566575830003771  0.6619056678534225  0.2482657087930889   T   T   T
  0.0945245300290194  0.1775672088115064  0.2589725878000642   T   T   T
  0.0860945800441090  0.4052018395099175  0.2600119963340264   T   T   T
  0.3250417783873853  0.4157445489391439  0.2589532286652494   T   T   T
  0.6850013613386556  0.5930264075514278  0.2925370012501307   T   T   T
  0.9094169508208263  0.5886442454671101  0.2923767334058390   T   T   T
  0.9133961575569980  0.8176141988604259  0.2923166694222685   T   T   T
  0.6501461283947347  0.3415597921620707  0.3007524857025683   T   T   T
  0.1609447369734097  0.8063230866699262  0.3004646547996700   T   T   T
  0.6990926852603558  0.8562812756886672  0.3006745970972350   T   T   T
  0.8974248861585112  0.0696813144604965  0.3134899569852769   T   T   T
  0.4391869119455352  0.3264571625102215  0.3109212413137344   T   T   T
  0.1779894805154288  0.6149615091477828  0.3092627205114125   T   T   T
  0.6588557046812296  0.0538844268488705  0.3209441251422309   T   T   T
  0.4465059167691584  0.1055725010107823  0.3202701559454252   T   T   T
  0.3969405445120838  0.8392643090756066  0.3199453870353904   T   T   T
  0.2363623318537399  0.2403871585772254  0.3542033218959639   T   T   T
  0.0131822968629504  0.2708026481522933  0.3603868519651834   T   T   T
  0.2636359636736715  0.4963792745450356  0.3540364232849411   T   T   T
  0.2364957941020658  0.0025461099883576  0.3519929151747901   T   T   T
  0.7711488147349612  0.2647714577647945  0.3522004988873567   T   T   T
  0.5014702411866638  0.7328049420791770  0.3522889125104163   T   T   T
  0.9852403242824939  0.4864242971753527  0.3585742528728118   T   T   T
  0.5064454464059283  0.5187062446884053  0.3580142779156062   T   T   T
  0.0150515041412088  0.9916717659022253  0.3592131749179112   T   T   T
  0.7509785235508863  0.5045888366034538  0.3710058848990777   T   T   T
  0.7587212110506091  0.7508929427673726  0.3710897204681294   T   T   T
  0.9965067642381336  0.7425611289480124  0.3712222098362826   T   T   T
  0.0066014596551288  0.2729529114941656  0.3966120445380251   T   T   T
 
  0.00000000E+00  0.00000000E+00  0.00000000E+00
  0.00000000E+00  0.00000000E+00  0.00000000E+00
  0.00000000E+00  0.00000000E+00  0.00000000E+00
  0.00000000E+00  0.00000000E+00  0.00000000E+00
  0.00000000E+00  0.00000000E+00  0.00000000E+00
  0.00000000E+00  0.00000000E+00  0.00000000E+00
  0.00000000E+00  0.00000000E+00  0.00000000E+00
  0.00000000E+00  0.00000000E+00  0.00000000E+00
  0.00000000E+00  0.00000000E+00  0.00000000E+00
  0.00000000E+00  0.00000000E+00  0.00000000E+00
  0.00000000E+00  0.00000000E+00  0.00000000E+00
  0.00000000E+00  0.00000000E+00  0.00000000E+00
  0.00000000E+00  0.00000000E+00  0.00000000E+00
  0.00000000E+00  0.00000000E+00  0.00000000E+00
  0.00000000E+00  0.00000000E+00  0.00000000E+00
  0.00000000E+00  0.00000000E+00  0.00000000E+00
  0.00000000E+00  0.00000000E+00  0.00000000E+00
  0.00000000E+00  0.00000000E+00  0.00000000E+00
  0.00000000E+00  0.00000000E+00  0.00000000E+00
  0.00000000E+00  0.00000000E+00  0.00000000E+00
  0.00000000E+00  0.00000000E+00  0.00000000E+00
  0.00000000E+00  0.00000000E+00  0.00000000E+00
  0.00000000E+00  0.00000000E+00  0.00000000E+00
  0.00000000E+00  0.00000000E+00  0.00000000E+00
  0.00000000E+00  0.00000000E+00  0.00000000E+00
  0.00000000E+00  0.00000000E+00  0.00000000E+00
  0.00000000E+00  0.00000000E+00  0.00000000E+00
  0.00000000E+00  0.00000000E+00  0.00000000E+00
  0.00000000E+00  0.00000000E+00  0.00000000E+00
  0.00000000E+00  0.00000000E+00  0.00000000E+00
  0.00000000E+00  0.00000000E+00  0.00000000E+00
  0.00000000E+00  0.00000000E+00  0.00000000E+00
  0.00000000E+00  0.00000000E+00  0.00000000E+00
  0.00000000E+00  0.00000000E+00  0.00000000E+00
  0.00000000E+00  0.00000000E+00  0.00000000E+00
  0.00000000E+00  0.00000000E+00  0.00000000E+00
  0.00000000E+00  0.00000000E+00  0.00000000E+00
  0.00000000E+00  0.00000000E+00  0.00000000E+00
  0.00000000E+00  0.00000000E+00  0.00000000E+00
  0.00000000E+00  0.00000000E+00  0.00000000E+00
  0.00000000E+00  0.00000000E+00  0.00000000E+00
  0.00000000E+00  0.00000000E+00  0.00000000E+00
  0.00000000E+00  0.00000000E+00  0.00000000E+00
  0.00000000E+00  0.00000000E+00  0.00000000E+00
  0.00000000E+00  0.00000000E+00  0.00000000E+00
  0.00000000E+00  0.00000000E+00  0.00000000E+00
  0.00000000E+00  0.00000000E+00  0.00000000E+00
  0.00000000E+00  0.00000000E+00  0.00000000E+00
  0.00000000E+00  0.00000000E+00  0.00000000E+00
  0.00000000E+00  0.00000000E+00  0.00000000E+00
  0.00000000E+00  0.00000000E+00  0.00000000E+00
  0.00000000E+00  0.00000000E+00  0.00000000E+00
  0.00000000E+00  0.00000000E+00  0.00000000E+00
  0.00000000E+00  0.00000000E+00  0.00000000E+00
  0.00000000E+00  0.00000000E+00  0.00000000E+00
  0.00000000E+00  0.00000000E+00  0.00000000E+00
  0.00000000E+00  0.00000000E+00  0.00000000E+00
  0.00000000E+00  0.00000000E+00  0.00000000E+00
  0.00000000E+00  0.00000000E+00  0.00000000E+00
  0.00000000E+00  0.00000000E+00  0.00000000E+00
  0.00000000E+00  0.00000000E+00  0.00000000E+00
  0.00000000E+00  0.00000000E+00  0.00000000E+00
  0.00000000E+00  0.00000000E+00  0.00000000E+00
  0.00000000E+00  0.00000000E+00  0.00000000E+00
  0.00000000E+00  0.00000000E+00  0.00000000E+00
  0.00000000E+00  0.00000000E+00  0.00000000E+00
  0.00000000E+00  0.00000000E+00  0.00000000E+00
  0.00000000E+00  0.00000000E+00  0.00000000E+00
  0.00000000E+00  0.00000000E+00  0.00000000E+00
  0.00000000E+00  0.00000000E+00  0.00000000E+00
  0.00000000E+00  0.00000000E+00  0.00000000E+00
  0.00000000E+00  0.00000000E+00  0.00000000E+00
  0.00000000E+00  0.00000000E+00  0.00000000E+00
  0.00000000E+00  0.00000000E+00  0.00000000E+00
  0.00000000E+00  0.00000000E+00  0.00000000E+00
  0.00000000E+00  0.00000000E+00  0.00000000E+00
  0.00000000E+00  0.00000000E+00  0.00000000E+00
  0.00000000E+00  0.00000000E+00  0.00000000E+00
  0.00000000E+00  0.00000000E+00  0.00000000E+00
  0.00000000E+00  0.00000000E+00  0.00000000E+00
  0.00000000E+00  0.00000000E+00  0.00000000E+00
  0.00000000E+00  0.00000000E+00  0.00000000E+00
  0.00000000E+00  0.00000000E+00  0.00000000E+00
  0.00000000E+00  0.00000000E+00  0.00000000E+00
  0.00000000E+00  0.00000000E+00  0.00000000E+00
  0.00000000E+00  0.00000000E+00  0.00000000E+00
  0.00000000E+00  0.00000000E+00  0.00000000E+00
  0.00000000E+00  0.00000000E+00  0.00000000E+00
  0.00000000E+00  0.00000000E+00  0.00000000E+00
  0.00000000E+00  0.00000000E+00  0.00000000E+00
  0.00000000E+00  0.00000000E+00  0.00000000E+00
  0.00000000E+00  0.00000000E+00  0.00000000E+00
  0.00000000E+00  0.00000000E+00  0.00000000E+00
  0.00000000E+00  0.00000000E+00  0.00000000E+00
  0.00000000E+00  0.00000000E+00  0.00000000E+00
  0.00000000E+00  0.00000000E+00  0.00000000E+00
  0.00000000E+00  0.00000000E+00  0.00000000E+00
  0.00000000E+00  0.00000000E+00  0.00000000E+00
  0.00000000E+00  0.00000000E+00  0.00000000E+00
  0.00000000E+00  0.00000000E+00  0.00000000E+00
  0.00000000E+00  0.00000000E+00  0.00000000E+00
  0.00000000E+00  0.00000000E+00  0.00000000E+00
  0.00000000E+00  0.00000000E+00  0.00000000E+00
  0.00000000E+00  0.00000000E+00  0.00000000E+00
  0.00000000E+00  0.00000000E+00  0.00000000E+00
  0.00000000E+00  0.00000000E+00  0.00000000E+00
  0.00000000E+00  0.00000000E+00  0.00000000E+00
  0.00000000E+00  0.00000000E+00  0.00000000E+00
  0.00000000E+00  0.00000000E+00  0.00000000E+00
  0.00000000E+00  0.00000000E+00  0.00000000E+00
  0.00000000E+00  0.00000000E+00  0.00000000E+00
  0.00000000E+00  0.00000000E+00  0.00000000E+00
  0.00000000E+00  0.00000000E+00  0.00000000E+00
  0.00000000E+00  0.00000000E+00  0.00000000E+00
  0.00000000E+00  0.00000000E+00  0.00000000E+00
  0.00000000E+00  0.00000000E+00  0.00000000E+00
  0.00000000E+00  0.00000000E+00  0.00000000E+00
  0.00000000E+00  0.00000000E+00  0.00000000E+00
  0.00000000E+00  0.00000000E+00  0.00000000E+00
  0.00000000E+00  0.00000000E+00  0.00000000E+00
  0.00000000E+00  0.00000000E+00  0.00000000E+00
