In O H                                  
   1.00000000000000     
    14.4942117030500004    0.0000000000000000    0.0000000000000000
    -7.2471058515250002   12.5523555426710001    0.0000000000000000
     0.0000000000000000    0.0000000000000000   26.8344742987830003
   In   O    H 
    48    72     1
Selective dynamics
Direct
  0.2830501128397774  0.0160888573421393  0.1060505658773446   T   T   T
  0.2442158776734177  0.2318094952622246  0.1021331313321693   T   T   T
  0.7381771328493948  0.2200213892839701  0.1057750003696947   T   T   T
  0.9930043832019682  0.2588906144882757  0.1020949908304729   T   T   T
  0.2712475033889960  0.5101371893325195  0.1020104456297987   T   T   T
  0.4872041142528338  0.7648332144662571  0.1055142230073753   T   T   T
  0.9985553982587863  0.0073702256774828  0.1117531466753774   T   T   T
  0.0139823703102218  0.5046584915252139  0.1113600828125455   T   T   T
  0.4955784961453315  0.4890595862739545  0.1114603264309108   T   T   T
  0.5028675180299556  0.0005514056347805  0.0987081174364098   T   T   T
  0.5159830348620692  0.2389603347623729  0.1106421717337208   T   T   T
  0.7234441208205916  0.4875198876838545  0.1203974001992903   T   T   T
  0.0154748470534883  0.7340223487584364  0.1203582116431753   T   T   T
  0.2639268352243052  0.7749625550265478  0.1100464458558352   T   T   T
  0.7691187528718137  0.7796999211119844  0.1205055339694290   T   T   T
  0.7283164057757455  0.9873364304547715  0.1107925880567250   T   T   T
  0.1574421967202875  0.0920110756427713  0.2118211306620558   T   T   T
  0.9391519990551415  0.3449062526027648  0.2110862458473691   T   T   T
  0.4107250483184026  0.5635629555900317  0.2115663870022912   T   T   T
  0.9027928923935921  0.5575132109623652  0.2146398882164710   T   T   T
  0.6594316667429856  0.6001488097824219  0.2146338791840200   T   T   T
  0.9454258979889819  0.8432903379524871  0.2149579664791718   T   T   T
  0.6695979691424458  0.3334176991501218  0.2200401356443594   T   T   T
  0.1691122184014784  0.8333259284712127  0.2202395287008022   T   T   T
  0.6693072629348467  0.8338395584737397  0.2202370538124741   T   T   T
  0.1692191460452326  0.3331598172072809  0.2199158356416338   T   T   T
  0.6794917612878100  0.0677314438568849  0.2250176345178665   T   T   T
  0.4363101228770731  0.1099100433793384  0.2249290117825045   T   T   T
  0.9284188260698953  0.1045065515617356  0.2288554836343007   T   T   T
  0.3985813858885965  0.3210261434460728  0.2275570645052825   T   T   T
  0.1815760260327273  0.5744224110134636  0.2279318872869321   T   T   T
  0.3942375831468500  0.8262951598977927  0.2237929655552085   T   T   T
  0.6154023058132818  0.1799696712541013  0.3205455593684446   T   T   T
  0.8215895523017073  0.4287446795187817  0.3289779267963496   T   T   T
  0.6098738945248758  0.6796777393996513  0.3289472173442203   T   T   T
  0.0741696947282198  0.8929254647291252  0.3292840377611253   T   T   T
  0.5717233260872833  0.8895364663020396  0.3206218213690333   T   T   T
  0.3231666617208003  0.9345950725002302  0.3203403763886160   T   T   T
  0.3254120889463227  0.1607812255078762  0.3285871946946631   T   T   T
  0.8412960646344033  0.1767264384390522  0.3290986813824660   T   T   T
  0.3428116794745010  0.6728177453465963  0.3274323010849477   T   T   T
  0.8358317462930691  0.6678078317588860  0.3408249585459812   T   T   T
  0.0676688396014675  0.1565462545112813  0.3381093693701444   T   T   T
  0.3518114205127471  0.4020116177965447  0.3365301971752499   T   T   T
  0.0830120570949485  0.4317410401166634  0.3370343851975793   T   T   T
  0.6023503281491098  0.4478012820299523  0.3343203207829257   T   T   T
  0.0549340422300679  0.6524861050299235  0.3348031846382583   T   T   T
  0.8514553944975073  0.9025096300950605  0.3348320288555033   T   T   T
  0.5883857542821708  0.1620568710074796  0.0691808765730242   T   T   T
  0.3410020550597014  0.9246212950790570  0.0690426962477796   T   T   T
  0.5790597655609006  0.9148423196298417  0.0691954388084198   T   T   T
  0.8324651245067430  0.1484137698748897  0.0830527588445251   T   T   T
  0.3547091630197168  0.1818892354586220  0.0831136112687335   T   T   T
  0.3210998595136813  0.6706317520103438  0.0829147337371265   T   T   T
  0.5687578213670047  0.4020964496637579  0.0886850914984473   T   T   T
  0.1008809042205660  0.6647546891214893  0.0884783633507366   T   T   T
  0.8384553655673623  0.9344511506716588  0.0888442578474067   T   T   T
  0.0765259328080369  0.1733906358189887  0.0873595174818825   T   T   T
  0.3296460469629704  0.4008401282234623  0.0871947685513972   T   T   T
  0.1023500344449499  0.4267974575738675  0.0873319031144669   T   T   T
  0.8914739721847270  0.5615408230345793  0.1219734750095223   T   T   T
  0.6748291002767418  0.6115893486539804  0.1221941471357405   T   T   T
  0.9415375438782339  0.8279793747926073  0.1219364195945982   T   T   T
  0.1623277271134189  0.0562216513921736  0.1304176011131146   T   T   T
  0.8990982817429999  0.3410166184924083  0.1298033808536546   T   T   T
  0.4468964469257470  0.6041228070174361  0.1300530257903836   T   T   T
  0.6890041130073001  0.3251984430410573  0.1399740739290108   T   T   T
  0.6414004561987519  0.8145304668969552  0.1402045493535152   T   T   T
  0.1781465396221515  0.8612850718409368  0.1401407826671716   T   T   T
  0.4298326978837806  0.0776934320118442  0.1477867057671054   T   T   T
  0.6533323117755503  0.0733400912008628  0.1478352408193187   T   T   T
  0.4249533069143269  0.8498840445610484  0.1470491590513546   T   T   T
  0.0134065845381299  0.2521246052888627  0.1819920382927380   T   T   T
  0.2517669952499128  0.2600536479656597  0.1820116056066610   T   T   T
  0.2441632081470348  0.4897188522694267  0.1820356057056204   T   T   T
  0.9829580928328133  0.0062288847162686  0.1924525823403544   T   T   T
  0.4957847315552890  0.4743109590941990  0.1923049682352809   T   T   T
  0.0288136479342441  0.5200363097684613  0.1921281981024235   T   T   T
  0.5052427386104983  0.2742467192194638  0.1973277055428480   T   T   T
  0.2288582561505866  0.7283685789393651  0.1981272759284296   T   T   T
  0.7747592355605631  0.9982984288270234  0.1980599473079458   T   T   T
  0.7339112577475849  0.5064114350566585  0.2011490639543792   T   T   T
  0.9964366412748568  0.7256612747901087  0.2010915728831966   T   T   T
  0.7771830954686260  0.7688220337236792  0.2012378645508648   T   T   T
  0.6042605913109774  0.1601853161644916  0.2400141973902074   T   T   T
  0.5608634007863745  0.8992069268450932  0.2400967399742007   T   T   T
  0.3426599546972151  0.9420785026809687  0.2398598928207943   T   T   T
  0.8343268668449143  0.3931313843216631  0.2429506962834989   T   T   T
  0.5634732131638837  0.6690933041991497  0.2432502722904696   T   T   T
  0.1102455812237833  0.9384952871058053  0.2436034532651680   T   T   T
  0.3103081894049335  0.1464682123214976  0.2482710175163898   T   T   T
  0.8419306133909117  0.1929794800840769  0.2486523534207929   T   T   T
  0.3558797340867866  0.6626265753473151  0.2484351233899716   T   T   T
  0.0958385617577632  0.1780449465623596  0.2589683107883551   T   T   T
  0.0881330852648945  0.4085065635060657  0.2589863188748837   T   T   T
  0.3242190162939980  0.4171356992673994  0.2599937123476702   T   T   T
  0.6843339583223305  0.5936862031701094  0.2923582584200339   T   T   T
  0.9092825679095761  0.5897315759380619  0.2922855529820189   T   T   T
  0.9131181711984634  0.8181565156335271  0.2925314650043760   T   T   T
  0.6503886666591761  0.3421334987744211  0.3004409662762787   T   T   T
  0.1622052706953312  0.8039201165952022  0.3006376816311378   T   T   T
  0.6965106615937580  0.8529912948081008  0.3007684483029516   T   T   T
  0.8922949231377011  0.0638850578380811  0.3109594940602938   T   T   T
  0.4420301381006746  0.3251041237736781  0.3092506542121323   T   T   T
  0.1773009875585637  0.6056621912558147  0.3134879724059070   T   T   T
  0.6641591259683950  0.0566165395965258  0.3202643527145630   T   T   T
  0.4473388991950989  0.1061124000990099  0.3199180336461557   T   T   T
  0.4000800619685457  0.8442019095060007  0.3209710798261167   T   T   T
  0.2378474898116255  0.2394788722552229  0.3540504370399540   T   T   T
  0.0091368051345230  0.2667578762024406  0.3542255892693422   T   T   T
  0.2626968523335020  0.4900058778154622  0.3603937579029098   T   T   T
  0.2364352553241289  0.0015322830591939  0.3522926688148121   T   T   T
  0.7710961775751772  0.2666425447957946  0.3519559044187990   T   T   T
  0.4987254722860565  0.7318776079218436  0.3521929840922865   T   T   T
  0.9816470727852370  0.4879888333665013  0.3591564906274850   T   T   T
  0.5062209588322808  0.5178510478457087  0.3585634308274724   T   T   T
  0.0174074028432157  0.9966975469242852  0.3580147971352269   T   T   T
  0.7511298816108706  0.5066004072461211  0.3711858609667393   T   T   T
  0.7586753723862734  0.7521096674845200  0.3710099676884115   T   T   T
  0.9972646064765431  0.7443695559528488  0.3710898298325167   T   T   T
  0.2714283994473682  0.4965552103349961  0.3966176708609314   T   T   T
 
  0.00000000E+00  0.00000000E+00  0.00000000E+00
  0.00000000E+00  0.00000000E+00  0.00000000E+00
  0.00000000E+00  0.00000000E+00  0.00000000E+00
  0.00000000E+00  0.00000000E+00  0.00000000E+00
  0.00000000E+00  0.00000000E+00  0.00000000E+00
  0.00000000E+00  0.00000000E+00  0.00000000E+00
  0.00000000E+00  0.00000000E+00  0.00000000E+00
  0.00000000E+00  0.00000000E+00  0.00000000E+00
  0.00000000E+00  0.00000000E+00  0.00000000E+00
  0.00000000E+00  0.00000000E+00  0.00000000E+00
  0.00000000E+00  0.00000000E+00  0.00000000E+00
  0.00000000E+00  0.00000000E+00  0.00000000E+00
  0.00000000E+00  0.00000000E+00  0.00000000E+00
  0.00000000E+00  0.00000000E+00  0.00000000E+00
  0.00000000E+00  0.00000000E+00  0.00000000E+00
  0.00000000E+00  0.00000000E+00  0.00000000E+00
  0.00000000E+00  0.00000000E+00  0.00000000E+00
  0.00000000E+00  0.00000000E+00  0.00000000E+00
  0.00000000E+00  0.00000000E+00  0.00000000E+00
  0.00000000E+00  0.00000000E+00  0.00000000E+00
  0.00000000E+00  0.00000000E+00  0.00000000E+00
  0.00000000E+00  0.00000000E+00  0.00000000E+00
  0.00000000E+00  0.00000000E+00  0.00000000E+00
  0.00000000E+00  0.00000000E+00  0.00000000E+00
  0.00000000E+00  0.00000000E+00  0.00000000E+00
  0.00000000E+00  0.00000000E+00  0.00000000E+00
  0.00000000E+00  0.00000000E+00  0.00000000E+00
  0.00000000E+00  0.00000000E+00  0.00000000E+00
  0.00000000E+00  0.00000000E+00  0.00000000E+00
  0.00000000E+00  0.00000000E+00  0.00000000E+00
  0.00000000E+00  0.00000000E+00  0.00000000E+00
  0.00000000E+00  0.00000000E+00  0.00000000E+00
  0.00000000E+00  0.00000000E+00  0.00000000E+00
  0.00000000E+00  0.00000000E+00  0.00000000E+00
  0.00000000E+00  0.00000000E+00  0.00000000E+00
  0.00000000E+00  0.00000000E+00  0.00000000E+00
  0.00000000E+00  0.00000000E+00  0.00000000E+00
  0.00000000E+00  0.00000000E+00  0.00000000E+00
  0.00000000E+00  0.00000000E+00  0.00000000E+00
  0.00000000E+00  0.00000000E+00  0.00000000E+00
  0.00000000E+00  0.00000000E+00  0.00000000E+00
  0.00000000E+00  0.00000000E+00  0.00000000E+00
  0.00000000E+00  0.00000000E+00  0.00000000E+00
  0.00000000E+00  0.00000000E+00  0.00000000E+00
  0.00000000E+00  0.00000000E+00  0.00000000E+00
  0.00000000E+00  0.00000000E+00  0.00000000E+00
  0.00000000E+00  0.00000000E+00  0.00000000E+00
  0.00000000E+00  0.00000000E+00  0.00000000E+00
  0.00000000E+00  0.00000000E+00  0.00000000E+00
  0.00000000E+00  0.00000000E+00  0.00000000E+00
  0.00000000E+00  0.00000000E+00  0.00000000E+00
  0.00000000E+00  0.00000000E+00  0.00000000E+00
  0.00000000E+00  0.00000000E+00  0.00000000E+00
  0.00000000E+00  0.00000000E+00  0.00000000E+00
  0.00000000E+00  0.00000000E+00  0.00000000E+00
  0.00000000E+00  0.00000000E+00  0.00000000E+00
  0.00000000E+00  0.00000000E+00  0.00000000E+00
  0.00000000E+00  0.00000000E+00  0.00000000E+00
  0.00000000E+00  0.00000000E+00  0.00000000E+00
  0.00000000E+00  0.00000000E+00  0.00000000E+00
  0.00000000E+00  0.00000000E+00  0.00000000E+00
  0.00000000E+00  0.00000000E+00  0.00000000E+00
  0.00000000E+00  0.00000000E+00  0.00000000E+00
  0.00000000E+00  0.00000000E+00  0.00000000E+00
  0.00000000E+00  0.00000000E+00  0.00000000E+00
  0.00000000E+00  0.00000000E+00  0.00000000E+00
  0.00000000E+00  0.00000000E+00  0.00000000E+00
  0.00000000E+00  0.00000000E+00  0.00000000E+00
  0.00000000E+00  0.00000000E+00  0.00000000E+00
  0.00000000E+00  0.00000000E+00  0.00000000E+00
  0.00000000E+00  0.00000000E+00  0.00000000E+00
  0.00000000E+00  0.00000000E+00  0.00000000E+00
  0.00000000E+00  0.00000000E+00  0.00000000E+00
  0.00000000E+00  0.00000000E+00  0.00000000E+00
  0.00000000E+00  0.00000000E+00  0.00000000E+00
  0.00000000E+00  0.00000000E+00  0.00000000E+00
  0.00000000E+00  0.00000000E+00  0.00000000E+00
  0.00000000E+00  0.00000000E+00  0.00000000E+00
  0.00000000E+00  0.00000000E+00  0.00000000E+00
  0.00000000E+00  0.00000000E+00  0.00000000E+00
  0.00000000E+00  0.00000000E+00  0.00000000E+00
  0.00000000E+00  0.00000000E+00  0.00000000E+00
  0.00000000E+00  0.00000000E+00  0.00000000E+00
  0.00000000E+00  0.00000000E+00  0.00000000E+00
  0.00000000E+00  0.00000000E+00  0.00000000E+00
  0.00000000E+00  0.00000000E+00  0.00000000E+00
  0.00000000E+00  0.00000000E+00  0.00000000E+00
  0.00000000E+00  0.00000000E+00  0.00000000E+00
  0.00000000E+00  0.00000000E+00  0.00000000E+00
  0.00000000E+00  0.00000000E+00  0.00000000E+00
  0.00000000E+00  0.00000000E+00  0.00000000E+00
  0.00000000E+00  0.00000000E+00  0.00000000E+00
  0.00000000E+00  0.00000000E+00  0.00000000E+00
  0.00000000E+00  0.00000000E+00  0.00000000E+00
  0.00000000E+00  0.00000000E+00  0.00000000E+00
  0.00000000E+00  0.00000000E+00  0.00000000E+00
  0.00000000E+00  0.00000000E+00  0.00000000E+00
  0.00000000E+00  0.00000000E+00  0.00000000E+00
  0.00000000E+00  0.00000000E+00  0.00000000E+00
  0.00000000E+00  0.00000000E+00  0.00000000E+00
  0.00000000E+00  0.00000000E+00  0.00000000E+00
  0.00000000E+00  0.00000000E+00  0.00000000E+00
  0.00000000E+00  0.00000000E+00  0.00000000E+00
  0.00000000E+00  0.00000000E+00  0.00000000E+00
  0.00000000E+00  0.00000000E+00  0.00000000E+00
  0.00000000E+00  0.00000000E+00  0.00000000E+00
  0.00000000E+00  0.00000000E+00  0.00000000E+00
  0.00000000E+00  0.00000000E+00  0.00000000E+00
  0.00000000E+00  0.00000000E+00  0.00000000E+00
  0.00000000E+00  0.00000000E+00  0.00000000E+00
  0.00000000E+00  0.00000000E+00  0.00000000E+00
  0.00000000E+00  0.00000000E+00  0.00000000E+00
  0.00000000E+00  0.00000000E+00  0.00000000E+00
  0.00000000E+00  0.00000000E+00  0.00000000E+00
  0.00000000E+00  0.00000000E+00  0.00000000E+00
  0.00000000E+00  0.00000000E+00  0.00000000E+00
  0.00000000E+00  0.00000000E+00  0.00000000E+00
  0.00000000E+00  0.00000000E+00  0.00000000E+00
  0.00000000E+00  0.00000000E+00  0.00000000E+00
  0.00000000E+00  0.00000000E+00  0.00000000E+00
  0.00000000E+00  0.00000000E+00  0.00000000E+00
