In O                                    
   1.00000000000000     
    14.4942117030500004    0.0000000000000000    0.0000000000000000
    -7.2471058515250002   12.5523555426710001    0.0000000000000000
     0.0000000000000000    0.0000000000000000   26.8344742987830003
   In   O 
    48    72
Selective dynamics
Direct
  0.2826907400908032  0.0156481295480900  0.1065285188606998   T   T   T
  0.2439526604256908  0.2315055598719826  0.1024359455263230   T   T   T
  0.7380404407422853  0.2204257750001981  0.1065285188606998   T   T   T
  0.9926359507312902  0.2591638546653105  0.1024359455263230   T   T   T
  0.2716109552190187  0.5104805643597111  0.1024359455263230   T   T   T
  0.4874683855429113  0.7650760743487161  0.1065285188606998   T   T   T
  0.9985341434766700  0.0078624010759105  0.1117234663881670   T   T   T
  0.0144113088842461  0.5045823716143313  0.1117234663881670   T   T   T
  0.4952541140150908  0.4887052062067552  0.1117234663881670   T   T   T
  0.5027331887919999  0.0003833262990014  0.1009406899688380   T   T   T
  0.5151553418012774  0.2388677576867674  0.1115937774821850   T   T   T
  0.7231547788373196  0.4878076043916748  0.1206933549635434   T   T   T
  0.0153089106993265  0.7333806382526495  0.1206933549635434   T   T   T
  0.2642487574042339  0.7743210479215148  0.1115937774821850   T   T   T
  0.7697358768383518  0.7799617362536817  0.1206933549635434   T   T   T
  0.7287954671694865  0.9879611732897239  0.1115937774821850   T   T   T
  0.1575933156969405  0.0928257660611785  0.2117880057690065   T   T   T
  0.9403155016502311  0.3455231993940537  0.2117880057690065   T   T   T
  0.4102907490298228  0.5628010134407631  0.2117880057690065   T   T   T
  0.9026963986435690  0.5569874467964691  0.2146992893442995   T   T   T
  0.6593740994389004  0.6004201164474323  0.2146992893442995   T   T   T
  0.9461290682945251  0.8437424156521010  0.2146992893442995   T   T   T
  0.6693993602820001  0.3337156692779999  0.2204273726059967   T   T   T
  0.1694008458130014  0.8337171548090012  0.2204273726059967   T   T   T
  0.6693993602820001  0.8337171548090012  0.2204273726059967   T   T   T
  0.1693998554589982  0.3337166596320031  0.2204277001790018   T   T   T
  0.6794256114790960  0.0670132028165668  0.2261561110127022   T   T   T
  0.4361033122744274  0.1104458724685249  0.2261561110127022   T   T   T
  0.9285089618881807  0.1046323058242309  0.2290673945879953   T   T   T
  0.3984842092667633  0.3219101198699455  0.2290673945879953   T   T   T
  0.1812063952210558  0.5746075532028206  0.2290673945879953   T   T   T
  0.3926706426224693  0.8236909036119053  0.2261561110127022   T   T   T
  0.6156449320786801  0.1796257148733262  0.3201620453934513   T   T   T
  0.8236443691157241  0.4285655615782336  0.3292616228748026   T   T   T
  0.6100042437465132  0.6794721459752772  0.3292616228748026   T   T   T
  0.0745509535127606  0.8931122713444881  0.3292616228748026   T   T   T
  0.5690638340786498  0.8874715830123212  0.3201620453934513   T   T   T
  0.3234908002176751  0.9340526810123515  0.3201620453934513   T   T   T
  0.3243874116787522  0.1628519380046659  0.3291312788228315   T   T   T
  0.8435475776099102  0.1787291034122419  0.3291312788228315   T   T   T
  0.3402645770863283  0.6595689374810911  0.3291312788228315   T   T   T
  0.8360665221250017  0.6670499929659996  0.3399147103881638   T   T   T
  0.0671887556979829  0.1569527549042881  0.3384194548306788   T   T   T
  0.3461637601867061  0.4082694645986887  0.3384194548306788   T   T   T
  0.0948470504923126  0.4359277593930184  0.3384194548306788   T   T   T
  0.6007592701757182  0.4470075442648029  0.3343268814963020   T   T   T
  0.0561089708261984  0.6517851897159092  0.3343268814963020   T   T   T
  0.8513313253750850  0.9023572449152831  0.3343268814963020   T   T   T
  0.5877105428087328  0.1615441961542230  0.0704629917897431   T   T   T
  0.3415723189367783  0.9241998104615075  0.0704629917897431   T   T   T
  0.5789167046294867  0.9154059722822614  0.0704629917897431   T   T   T
  0.8320996460610861  0.1487902801033290  0.0831647102249344   T   T   T
  0.3543262349876723  0.1813428297627510  0.0831647102249344   T   T   T
  0.3217736853282503  0.6710168690299152  0.0831647102249344   T   T   T
  0.5681560212011458  0.4016189241209362  0.0889029057416550   T   T   T
  0.1014975909700651  0.6645705608862125  0.0889029057416550   T   T   T
  0.8385459542047888  0.9349604938898555  0.0889029057416550   T   T   T
  0.0762594327080817  0.1737880309850472  0.0873219219300072   T   T   T
  0.3293284841059541  0.4005048655300322  0.0873219219300072   T   T   T
  0.1026116495609691  0.4268570823829195  0.0873219219300072   T   T   T
  0.8911223961524725  0.5613626014656078  0.1217199679010483   T   T   T
  0.6753232565981337  0.6119941189385288  0.1217199679010483   T   T   T
  0.9417539136253935  0.8277932584928605  0.1217199679010483   T   T   T
  0.1617416206102770  0.0558339840579349  0.1298617575775431   T   T   T
  0.8991754147326564  0.3413748944807243  0.1298617575775431   T   T   T
  0.4472825310330664  0.6039411003583449  0.1298617575775431   T   T   T
  0.6885453740446253  0.3257461493758322  0.1402916981563028   T   T   T
  0.6422838266152033  0.8145711410463689  0.1402916981563028   T   T   T
  0.1773703657151691  0.8608326884757980  0.1402916981563028   T   T   T
  0.4291295201009883  0.0784037131756240  0.1487310090868700   T   T   T
  0.6543572443606430  0.0739869949900130  0.1487310090868700   T   T   T
  0.4247128019153773  0.8487592707303583  0.1487310090868700   T   T   T
  0.0131794044422196  0.2520806930464591  0.1820178736187114   T   T   T
  0.2510358220445422  0.2591321752017563  0.1820178736187114   T   T   T
  0.2439843398892450  0.4899371106487817  0.1820178736187114   T   T   T
  0.9827681618095693  0.0064765831981480  0.1920741836233990   T   T   T
  0.4966399318928462  0.4743250424184260  0.1920741836233990   T   T   T
  0.0287914726725753  0.5203483532814320  0.1920741836233990   T   T   T
  0.5048506903447672  0.2749080841834011  0.1982210859758088   T   T   T
  0.2282084309076002  0.7279760699663742  0.1982210859758088   T   T   T
  0.7751404451246271  0.9982658247462270  0.1982210859758088   T   T   T
  0.7342078458270384  0.5070079343662329  0.2011506965968960   T   T   T
  0.9961085807247684  0.7252333752668154  0.2011506965968960   T   T   T
  0.7778831398241859  0.7689086692639630  0.2011506965968960   T   T   T
  0.6045918650909580  0.1604253848987681  0.2397047037600987   T   T   T
  0.5609165710938175  0.8985246500000362  0.2397047037600987   T   T   T
  0.3426911301922331  0.9421999439971838  0.2397047037600987   T   T   T
  0.8339490205732292  0.3925252350805981  0.2426343143811930   T   T   T
  0.5636592657933763  0.6691674945177721  0.2426343143811930   T   T   T
  0.1105912800103961  0.9394572492976250  0.2426343143811930   T   T   T
  0.3100082382444263  0.1470849659835690  0.2487812167336027   T   T   T
  0.8421597790241483  0.1931082768465750  0.2487812167336027   T   T   T
  0.3560315491074322  0.6609567360668459  0.2487812167336027   T   T   T
  0.0948153710277566  0.1774962086162194  0.2588375267382903   T   T   T
  0.0877638888724594  0.4083011440632447  0.2588375267382903   T   T   T
  0.3256203064747820  0.4153526262185420  0.2588375267382903   T   T   T
  0.6844424665573604  0.5934463242739862  0.2921243912701246   T   T   T
  0.9096701908170151  0.5890296060883752  0.2921243912701246   T   T   T
  0.9140869090026190  0.8186740485336409  0.2921243912701246   T   T   T
  0.6502543368723691  0.3416871698891689  0.3005637022006989   T   T   T
  0.1614293452018325  0.8066006307892031  0.3005637022006989   T   T   T
  0.6965158843017982  0.8528621782186251  0.3005637022006989   T   T   T
  0.8915171798839352  0.0634922189066561  0.3109936427794586   T   T   T
  0.4396242961843452  0.3260584247842767  0.3109936427794586   T   T   T
  0.1770580903067246  0.6115993352070661  0.3109936427794586   T   T   T
  0.6634764543188607  0.0554392003254703  0.3191354324559534   T   T   T
  0.4476773147655310  0.1060707177983914  0.3191354324559534   T   T   T
  0.3970457972926028  0.8396400607721335  0.3191354324559534   T   T   T
  0.2361878677650332  0.2405761854700797  0.3535332938059935   T   T   T
  0.0094710551810484  0.2669285476399629  0.3535332938059935   T   T   T
  0.2625402630639216  0.4936452070169504  0.3535332938059935   T   T   T
  0.2373023818979307  0.0028627586197905  0.3519524627603445   T   T   T
  0.7706435596878567  0.2658145741860691  0.3519524627603445   T   T   T
  0.5002533669662066  0.7324726734451428  0.3519524627603445   T   T   T
  0.9844749688573292  0.4860904029452485  0.3576905887410651   T   T   T
  0.5066996627969143  0.5186427722576762  0.3576905887410651   T   T   T
  0.0170258082997520  0.9964155266970824  0.3576905887410651   T   T   T
  0.7510892674212675  0.5058891754227746  0.3703924926052584   T   T   T
  0.7598826914565091  0.7520272434917354  0.3703924926052584   T   T   T
  0.9972277803782232  0.7432338763124893  0.3703924926052584   T   T   T
 
  0.00000000E+00  0.00000000E+00  0.00000000E+00
  0.00000000E+00  0.00000000E+00  0.00000000E+00
  0.00000000E+00  0.00000000E+00  0.00000000E+00
  0.00000000E+00  0.00000000E+00  0.00000000E+00
  0.00000000E+00  0.00000000E+00  0.00000000E+00
  0.00000000E+00  0.00000000E+00  0.00000000E+00
  0.00000000E+00  0.00000000E+00  0.00000000E+00
  0.00000000E+00  0.00000000E+00  0.00000000E+00
  0.00000000E+00  0.00000000E+00  0.00000000E+00
  0.00000000E+00  0.00000000E+00  0.00000000E+00
  0.00000000E+00  0.00000000E+00  0.00000000E+00
  0.00000000E+00  0.00000000E+00  0.00000000E+00
  0.00000000E+00  0.00000000E+00  0.00000000E+00
  0.00000000E+00  0.00000000E+00  0.00000000E+00
  0.00000000E+00  0.00000000E+00  0.00000000E+00
  0.00000000E+00  0.00000000E+00  0.00000000E+00
  0.00000000E+00  0.00000000E+00  0.00000000E+00
  0.00000000E+00  0.00000000E+00  0.00000000E+00
  0.00000000E+00  0.00000000E+00  0.00000000E+00
  0.00000000E+00  0.00000000E+00  0.00000000E+00
  0.00000000E+00  0.00000000E+00  0.00000000E+00
  0.00000000E+00  0.00000000E+00  0.00000000E+00
  0.00000000E+00  0.00000000E+00  0.00000000E+00
  0.00000000E+00  0.00000000E+00  0.00000000E+00
  0.00000000E+00  0.00000000E+00  0.00000000E+00
  0.00000000E+00  0.00000000E+00  0.00000000E+00
  0.00000000E+00  0.00000000E+00  0.00000000E+00
  0.00000000E+00  0.00000000E+00  0.00000000E+00
  0.00000000E+00  0.00000000E+00  0.00000000E+00
  0.00000000E+00  0.00000000E+00  0.00000000E+00
  0.00000000E+00  0.00000000E+00  0.00000000E+00
  0.00000000E+00  0.00000000E+00  0.00000000E+00
  0.00000000E+00  0.00000000E+00  0.00000000E+00
  0.00000000E+00  0.00000000E+00  0.00000000E+00
  0.00000000E+00  0.00000000E+00  0.00000000E+00
  0.00000000E+00  0.00000000E+00  0.00000000E+00
  0.00000000E+00  0.00000000E+00  0.00000000E+00
  0.00000000E+00  0.00000000E+00  0.00000000E+00
  0.00000000E+00  0.00000000E+00  0.00000000E+00
  0.00000000E+00  0.00000000E+00  0.00000000E+00
  0.00000000E+00  0.00000000E+00  0.00000000E+00
  0.00000000E+00  0.00000000E+00  0.00000000E+00
  0.00000000E+00  0.00000000E+00  0.00000000E+00
  0.00000000E+00  0.00000000E+00  0.00000000E+00
  0.00000000E+00  0.00000000E+00  0.00000000E+00
  0.00000000E+00  0.00000000E+00  0.00000000E+00
  0.00000000E+00  0.00000000E+00  0.00000000E+00
  0.00000000E+00  0.00000000E+00  0.00000000E+00
  0.00000000E+00  0.00000000E+00  0.00000000E+00
  0.00000000E+00  0.00000000E+00  0.00000000E+00
  0.00000000E+00  0.00000000E+00  0.00000000E+00
  0.00000000E+00  0.00000000E+00  0.00000000E+00
  0.00000000E+00  0.00000000E+00  0.00000000E+00
  0.00000000E+00  0.00000000E+00  0.00000000E+00
  0.00000000E+00  0.00000000E+00  0.00000000E+00
  0.00000000E+00  0.00000000E+00  0.00000000E+00
  0.00000000E+00  0.00000000E+00  0.00000000E+00
  0.00000000E+00  0.00000000E+00  0.00000000E+00
  0.00000000E+00  0.00000000E+00  0.00000000E+00
  0.00000000E+00  0.00000000E+00  0.00000000E+00
  0.00000000E+00  0.00000000E+00  0.00000000E+00
  0.00000000E+00  0.00000000E+00  0.00000000E+00
  0.00000000E+00  0.00000000E+00  0.00000000E+00
  0.00000000E+00  0.00000000E+00  0.00000000E+00
  0.00000000E+00  0.00000000E+00  0.00000000E+00
  0.00000000E+00  0.00000000E+00  0.00000000E+00
  0.00000000E+00  0.00000000E+00  0.00000000E+00
  0.00000000E+00  0.00000000E+00  0.00000000E+00
  0.00000000E+00  0.00000000E+00  0.00000000E+00
  0.00000000E+00  0.00000000E+00  0.00000000E+00
  0.00000000E+00  0.00000000E+00  0.00000000E+00
  0.00000000E+00  0.00000000E+00  0.00000000E+00
  0.00000000E+00  0.00000000E+00  0.00000000E+00
  0.00000000E+00  0.00000000E+00  0.00000000E+00
  0.00000000E+00  0.00000000E+00  0.00000000E+00
  0.00000000E+00  0.00000000E+00  0.00000000E+00
  0.00000000E+00  0.00000000E+00  0.00000000E+00
  0.00000000E+00  0.00000000E+00  0.00000000E+00
  0.00000000E+00  0.00000000E+00  0.00000000E+00
  0.00000000E+00  0.00000000E+00  0.00000000E+00
  0.00000000E+00  0.00000000E+00  0.00000000E+00
  0.00000000E+00  0.00000000E+00  0.00000000E+00
  0.00000000E+00  0.00000000E+00  0.00000000E+00
  0.00000000E+00  0.00000000E+00  0.00000000E+00
  0.00000000E+00  0.00000000E+00  0.00000000E+00
  0.00000000E+00  0.00000000E+00  0.00000000E+00
  0.00000000E+00  0.00000000E+00  0.00000000E+00
  0.00000000E+00  0.00000000E+00  0.00000000E+00
  0.00000000E+00  0.00000000E+00  0.00000000E+00
  0.00000000E+00  0.00000000E+00  0.00000000E+00
  0.00000000E+00  0.00000000E+00  0.00000000E+00
  0.00000000E+00  0.00000000E+00  0.00000000E+00
  0.00000000E+00  0.00000000E+00  0.00000000E+00
  0.00000000E+00  0.00000000E+00  0.00000000E+00
  0.00000000E+00  0.00000000E+00  0.00000000E+00
  0.00000000E+00  0.00000000E+00  0.00000000E+00
  0.00000000E+00  0.00000000E+00  0.00000000E+00
  0.00000000E+00  0.00000000E+00  0.00000000E+00
  0.00000000E+00  0.00000000E+00  0.00000000E+00
  0.00000000E+00  0.00000000E+00  0.00000000E+00
  0.00000000E+00  0.00000000E+00  0.00000000E+00
  0.00000000E+00  0.00000000E+00  0.00000000E+00
  0.00000000E+00  0.00000000E+00  0.00000000E+00
  0.00000000E+00  0.00000000E+00  0.00000000E+00
  0.00000000E+00  0.00000000E+00  0.00000000E+00
  0.00000000E+00  0.00000000E+00  0.00000000E+00
  0.00000000E+00  0.00000000E+00  0.00000000E+00
  0.00000000E+00  0.00000000E+00  0.00000000E+00
  0.00000000E+00  0.00000000E+00  0.00000000E+00
  0.00000000E+00  0.00000000E+00  0.00000000E+00
  0.00000000E+00  0.00000000E+00  0.00000000E+00
  0.00000000E+00  0.00000000E+00  0.00000000E+00
  0.00000000E+00  0.00000000E+00  0.00000000E+00
  0.00000000E+00  0.00000000E+00  0.00000000E+00
  0.00000000E+00  0.00000000E+00  0.00000000E+00
  0.00000000E+00  0.00000000E+00  0.00000000E+00
  0.00000000E+00  0.00000000E+00  0.00000000E+00
  0.00000000E+00  0.00000000E+00  0.00000000E+00
  0.00000000E+00  0.00000000E+00  0.00000000E+00
  0.00000000E+00  0.00000000E+00  0.00000000E+00
