In O                                    
   1.00000000000000     
     9.6230998390600000    0.0000000000000000    0.0000000000000000
     0.0000000000000000   14.6922204141950008    0.0000000000000000
     0.0000000000000000    0.0000000000000000   26.1117985650409992
   In   O 
    36    53
Selective dynamics
Direct
  0.5028956675860403  0.0116202353760435  0.1048193200119105   T   T   T
  0.8298017551183773  0.1076901229507519  0.1034749032244988   T   T   T
  0.1669700789338899  0.1592829943616165  0.1076530607420195   T   T   T
  0.4998462396742276  0.2927495087398672  0.1075612294364886   T   T   T
  0.8363237226470572  0.3445170060215159  0.1044810449275652   T   T   T
  0.1637004817088272  0.4405128124945418  0.1042992153016887   T   T   T
  0.5001726874902619  0.4921805944111505  0.1072869988322133   T   T   T
  0.8352930928143539  0.6260805152671672  0.1066617483251916   T   T   T
  0.1693489157564156  0.6789079354425893  0.1046719848567714   T   T   T
  0.4969722580970296  0.7745238948581684  0.1054871951481515   T   T   T
  0.8330586770676801  0.8260600175170871  0.1077094288110057   T   T   T
  0.1673988850443596  0.9595438578268977  0.1070508455042087   T   T   T
  0.9952776748552165  0.0011451252321589  0.2134062279874696   T   T   T
  0.3322471832283179  0.1161189574707675  0.2171926288675832   T   T   T
  0.6658617641677946  0.1675771716851245  0.2085461841565322   T   T   T
  0.0002201529151899  0.2839825685333490  0.2089165131317348   T   T   T
  0.3332422672114385  0.3336577876166289  0.2161173766349041   T   T   T
  0.6676262749229162  0.4499340196386492  0.2162197645561197   T   T   T
  0.0011903381703190  0.5010127709677706  0.2088713212448094   T   T   T
  0.3332594524746588  0.6161963810307477  0.2078610649150021   T   T   T
  0.6686401606809161  0.6649423643651216  0.2137451390634266   T   T   T
  0.0000448778990182  0.7834868526497504  0.2171974482941095   T   T   T
  0.3314261700718236  0.8358939587716986  0.2097623701245886   T   T   T
  0.6652298512072083  0.9501618525437984  0.2096803233261842   T   T   T
  0.5097930473041714  0.9957280038060201  0.3198155111345465   T   T   T
  0.8325341321020546  0.1285599321688208  0.3173147764687633   T   T   T
  0.1682274775218729  0.1818753513416709  0.3216594014383630   T   T   T
  0.4975373608520082  0.2746460158811494  0.3209170676274996   T   T   T
  0.8334142972921958  0.3273589912646803  0.3177108400286468   T   T   T
  0.1677156437402590  0.4595299361486965  0.3176287132723337   T   T   T
  0.5031489473326944  0.5108460565131543  0.3206397883592341   T   T   T
  0.8324082475812380  0.6060138708846249  0.3203061887054038   T   T   T
  0.1668777471595639  0.6589653345910244  0.3191441894546877   T   T   T
  0.5136218453817241  0.7825510344067380  0.3143687442672540   T   T   T
  0.8381974532370592  0.8432016148207122  0.3219067084902372   T   T   T
  0.1500531815506633  0.9515449397199003  0.3178489863378777   T   T   T
  0.6657243828969082  0.0588475130363516  0.0627210519508221   T   T   T
  0.9993271237901081  0.3933007470265361  0.0630306192183363   T   T   T
  0.3341324155761392  0.7262917996238081  0.0638341223976487   T   T   T
  0.0228561194728651  0.0620085488226086  0.0761051444798445   T   T   T
  0.3111087154116392  0.0571031212709156  0.0760874859287031   T   T   T
  0.3558671449575946  0.3945567342797212  0.0762163765760709   T   T   T
  0.6441123197904863  0.3904579411794036  0.0763350711504915   T   T   T
  0.6890173325334606  0.7283413563211273  0.0768852517951349   T   T   T
  0.9779578885018303  0.7244003186064260  0.0757087217774911   T   T   T
  0.6885315823138465  0.2260379155786482  0.1321918763657504   T   T   T
  0.9775779239937107  0.2258817338898648  0.1324259069971125   T   T   T
  0.0237782578402660  0.5599019126835368  0.1324084270584596   T   T   T
  0.3115639160069555  0.5590000372975018  0.1319025808437846   T   T   T
  0.3552687048135181  0.8931493672770460  0.1332766550465316   T   T   T
  0.6433654076889074  0.8918888310395916  0.1333395066989278   T   T   T
  0.3335162825327186  0.2260046023034610  0.1465638758388921   T   T   T
  0.6675622345211661  0.5596001641088558  0.1457627183823825   T   T   T
 -0.0002209663877023  0.8933330078212165  0.1461197848903993   T   T   T
  0.1667841669693881  0.0594356679619792  0.1741174942165973   T   T   T
  0.5002323248402942  0.3927897041947189  0.1744006485845017   T   T   T
  0.8364549912909324  0.7256123773067894  0.1737272425653618   T   T   T
  0.5164297576224420  0.0587742386209939  0.1837334052941630   T   T   T
  0.8115007933927937  0.0582346324702482  0.1815544667152281   T   T   T
  0.1487744586979255  0.3919356181662884  0.1829473244862327   T   T   T
  0.8524233549153903  0.3934085258668221  0.1827248600129525   T   T   T
  0.1858054549384930  0.7268426093567840  0.1837887802205475   T   T   T
  0.4807609255959264  0.7261718250446305  0.1846094568225954   T   T   T
  0.4807035476846522  0.2233899697301307  0.2431255601536820   T   T   T
  0.5176921884726313  0.5610710840843732  0.2424773576531273   T   T   T
  0.1852229361512260  0.2260401822482701  0.2428717439024103   T   T   T
  0.8160399333186181  0.5571434862712471  0.2422233568405852   T   T   T
  0.1458999730397812  0.8935167611000333  0.2422998307100886   T   T   T
  0.8505747170138654  0.8933920743964900  0.2437765123578781   T   T   T
  0.8318076569877896  0.2276476649239867  0.2509266877755046   T   T   T
  0.1675917672973537  0.5607460159099839  0.2515179495212527   T   T   T
  0.4969153603748205  0.8933160392877275  0.2545325360173200   T   T   T
  0.6714558680472477  0.0584055316060570  0.2782016238904636   T   T   T
  0.0011283507026832  0.3926329849046695  0.2792450259059584   T   T   T
  0.3276761395009035  0.7359917863345434  0.2837863591858187   T   T   T
  0.0187204569414719  0.0631370088924359  0.2899489468184492   T   T   T
  0.3096775959170017  0.0514538507921138  0.2966808373368962   T   T   T
  0.3559984388150155  0.3922751328162974  0.2928642927220536   T   T   T
  0.6442889012059834  0.3938474414190764  0.2931931727720997   T   T   T
  0.6999746241586815  0.7253728541317803  0.2895556227503298   T   T   T
  0.9800146371651751  0.7266176575436283  0.2942844568260290   T   T   T
  0.6894087606236325  0.2297202299017677  0.3492408857728276   T   T   T
  0.9763330308227883  0.2246581744864382  0.3498852430414567   T   T   T
  0.0230114459916691  0.5604556365148619  0.3496521538497146   T   T   T
  0.3116226621253513  0.5570210170879271  0.3492700537354571   T   T   T
  0.6329857799957586  0.8831768137889201  0.3517868665804414   T   T   T
  0.3354396067887450  0.2243036806505155  0.3623785158010747   T   T   T
  0.6637967190085716  0.5649186775491474  0.3614809320957773   T   T   T
  0.0044349248957303  0.8932604266955808  0.3632623117113378   T   T   T
 
  0.00000000E+00  0.00000000E+00  0.00000000E+00
  0.00000000E+00  0.00000000E+00  0.00000000E+00
  0.00000000E+00  0.00000000E+00  0.00000000E+00
  0.00000000E+00  0.00000000E+00  0.00000000E+00
  0.00000000E+00  0.00000000E+00  0.00000000E+00
  0.00000000E+00  0.00000000E+00  0.00000000E+00
  0.00000000E+00  0.00000000E+00  0.00000000E+00
  0.00000000E+00  0.00000000E+00  0.00000000E+00
  0.00000000E+00  0.00000000E+00  0.00000000E+00
  0.00000000E+00  0.00000000E+00  0.00000000E+00
  0.00000000E+00  0.00000000E+00  0.00000000E+00
  0.00000000E+00  0.00000000E+00  0.00000000E+00
  0.00000000E+00  0.00000000E+00  0.00000000E+00
  0.00000000E+00  0.00000000E+00  0.00000000E+00
  0.00000000E+00  0.00000000E+00  0.00000000E+00
  0.00000000E+00  0.00000000E+00  0.00000000E+00
  0.00000000E+00  0.00000000E+00  0.00000000E+00
  0.00000000E+00  0.00000000E+00  0.00000000E+00
  0.00000000E+00  0.00000000E+00  0.00000000E+00
  0.00000000E+00  0.00000000E+00  0.00000000E+00
  0.00000000E+00  0.00000000E+00  0.00000000E+00
  0.00000000E+00  0.00000000E+00  0.00000000E+00
  0.00000000E+00  0.00000000E+00  0.00000000E+00
  0.00000000E+00  0.00000000E+00  0.00000000E+00
  0.00000000E+00  0.00000000E+00  0.00000000E+00
  0.00000000E+00  0.00000000E+00  0.00000000E+00
  0.00000000E+00  0.00000000E+00  0.00000000E+00
  0.00000000E+00  0.00000000E+00  0.00000000E+00
  0.00000000E+00  0.00000000E+00  0.00000000E+00
  0.00000000E+00  0.00000000E+00  0.00000000E+00
  0.00000000E+00  0.00000000E+00  0.00000000E+00
  0.00000000E+00  0.00000000E+00  0.00000000E+00
  0.00000000E+00  0.00000000E+00  0.00000000E+00
  0.00000000E+00  0.00000000E+00  0.00000000E+00
  0.00000000E+00  0.00000000E+00  0.00000000E+00
  0.00000000E+00  0.00000000E+00  0.00000000E+00
  0.00000000E+00  0.00000000E+00  0.00000000E+00
  0.00000000E+00  0.00000000E+00  0.00000000E+00
  0.00000000E+00  0.00000000E+00  0.00000000E+00
  0.00000000E+00  0.00000000E+00  0.00000000E+00
  0.00000000E+00  0.00000000E+00  0.00000000E+00
  0.00000000E+00  0.00000000E+00  0.00000000E+00
  0.00000000E+00  0.00000000E+00  0.00000000E+00
  0.00000000E+00  0.00000000E+00  0.00000000E+00
  0.00000000E+00  0.00000000E+00  0.00000000E+00
  0.00000000E+00  0.00000000E+00  0.00000000E+00
  0.00000000E+00  0.00000000E+00  0.00000000E+00
  0.00000000E+00  0.00000000E+00  0.00000000E+00
  0.00000000E+00  0.00000000E+00  0.00000000E+00
  0.00000000E+00  0.00000000E+00  0.00000000E+00
  0.00000000E+00  0.00000000E+00  0.00000000E+00
  0.00000000E+00  0.00000000E+00  0.00000000E+00
  0.00000000E+00  0.00000000E+00  0.00000000E+00
  0.00000000E+00  0.00000000E+00  0.00000000E+00
  0.00000000E+00  0.00000000E+00  0.00000000E+00
  0.00000000E+00  0.00000000E+00  0.00000000E+00
  0.00000000E+00  0.00000000E+00  0.00000000E+00
  0.00000000E+00  0.00000000E+00  0.00000000E+00
  0.00000000E+00  0.00000000E+00  0.00000000E+00
  0.00000000E+00  0.00000000E+00  0.00000000E+00
  0.00000000E+00  0.00000000E+00  0.00000000E+00
  0.00000000E+00  0.00000000E+00  0.00000000E+00
  0.00000000E+00  0.00000000E+00  0.00000000E+00
  0.00000000E+00  0.00000000E+00  0.00000000E+00
  0.00000000E+00  0.00000000E+00  0.00000000E+00
  0.00000000E+00  0.00000000E+00  0.00000000E+00
  0.00000000E+00  0.00000000E+00  0.00000000E+00
  0.00000000E+00  0.00000000E+00  0.00000000E+00
  0.00000000E+00  0.00000000E+00  0.00000000E+00
  0.00000000E+00  0.00000000E+00  0.00000000E+00
  0.00000000E+00  0.00000000E+00  0.00000000E+00
  0.00000000E+00  0.00000000E+00  0.00000000E+00
  0.00000000E+00  0.00000000E+00  0.00000000E+00
  0.00000000E+00  0.00000000E+00  0.00000000E+00
  0.00000000E+00  0.00000000E+00  0.00000000E+00
  0.00000000E+00  0.00000000E+00  0.00000000E+00
  0.00000000E+00  0.00000000E+00  0.00000000E+00
  0.00000000E+00  0.00000000E+00  0.00000000E+00
  0.00000000E+00  0.00000000E+00  0.00000000E+00
  0.00000000E+00  0.00000000E+00  0.00000000E+00
  0.00000000E+00  0.00000000E+00  0.00000000E+00
  0.00000000E+00  0.00000000E+00  0.00000000E+00
  0.00000000E+00  0.00000000E+00  0.00000000E+00
  0.00000000E+00  0.00000000E+00  0.00000000E+00
  0.00000000E+00  0.00000000E+00  0.00000000E+00
  0.00000000E+00  0.00000000E+00  0.00000000E+00
  0.00000000E+00  0.00000000E+00  0.00000000E+00
  0.00000000E+00  0.00000000E+00  0.00000000E+00
  0.00000000E+00  0.00000000E+00  0.00000000E+00
