In O                                    
   1.00000000000000     
     9.6230998390600000    0.0000000000000000    0.0000000000000000
     0.0000000000000000   14.6922204141950008    0.0000000000000000
     0.0000000000000000    0.0000000000000000   26.1117985650409992
   In   O 
    36    53
Selective dynamics
Direct
  0.5030919826738014  0.0112578723383707  0.1045028759485186   T   T   T
  0.8304389138593139  0.1071816787531835  0.1043856488788747   T   T   T
  0.1668223428031712  0.1587726844627276  0.1073807076705460   T   T   T
  0.5018627233248055  0.2928362254921776  0.1067203865953317   T   T   T
  0.8360789603503024  0.3454874600546546  0.1047058514920497   T   T   T
  0.1635638366962668  0.4410609588828804  0.1054287992498443   T   T   T
  0.4996098806426483  0.4926377556452899  0.1075578164290472   T   T   T
  0.8340533907061112  0.6262135735383778  0.1071050888019619   T   T   T
  0.1695311221298733  0.6782265589872111  0.1048453977189771   T   T   T
  0.4966256690682478  0.7744350593591003  0.1035049971727403   T   T   T
  0.8336050735514304  0.8259436660607355  0.1076672914278009   T   T   T
  0.1665422117887973  0.9594654969759882  0.1075382856227647   T   T   T
 -0.0002073602885941  0.0002978678456638  0.2160838399608605   T   T   T
  0.3343165434993322  0.1165321681077123  0.2162817172800889   T   T   T
  0.6676076549416821  0.1677017545684341  0.2089745591957488   T   T   T
 -0.0000599829193993  0.2828886657977442  0.2079453519266682   T   T   T
  0.3351892463483840  0.3316172550930775  0.2137310444096046   T   T   T
  0.6667346123588175  0.4504583255070486  0.2169773848089981   T   T   T
  0.9982037376482035  0.5023872375996786  0.2097703140786291   T   T   T
  0.3319730804081480  0.6167049892278368  0.2096071204556584   T   T   T
  0.6621409244879968  0.6678833420129666  0.2134684907572113   T   T   T
  0.9990968972697605  0.7828241740649388  0.2171450734827198   T   T   T
  0.3325502613979437  0.8342055185071251  0.2085475781087655   T   T   T
  0.6669043841868633  0.9508475686512160  0.2089762296828739   T   T   T
  0.4999679724262452  0.9938652248516811  0.3178405643626482   T   T   T
  0.8343378285127361  0.1262210469567433  0.3176545294859659   T   T   T
  0.1697843710678986  0.1775497239657269  0.3206459471705395   T   T   T
  0.4989751741092753  0.2727551181654956  0.3203089435400224   T   T   T
  0.8335122413598446  0.3256855308863250  0.3191149123073964   T   T   T
  0.1801696546087675  0.4495550687948787  0.3144490021422903   T   T   T
  0.5049433680042990  0.5098076956658691  0.3217514511434953   T   T   T
  0.8169768922055223  0.6180612460218526  0.3178779518356374   T   T   T
  0.1763342666362606  0.6624839595903349  0.3197333606134000   T   T   T
  0.4993170205888147  0.7952454779394319  0.3172867360026757   T   T   T
  0.8349530313977985  0.8486323107052552  0.3216105429757743   T   T   T
  0.1640257866374286  0.9413201981983393  0.3208509992297048   T   T   T
  0.6662564102695808  0.0597764000599390  0.0630839845847261   T   T   T
  0.0006319983103965  0.3929729717420463  0.0637993758291853   T   T   T
  0.3325875420826184  0.7253840682055602  0.0628235704920353   T   T   T
  0.0225433948367446  0.0613258128705649  0.0762421365628867   T   T   T
  0.3108370563114965  0.0571924165540959  0.0762756413282545   T   T   T
  0.3555801015590911  0.3948484438752241  0.0766984575610040   T   T   T
  0.6447250090386493  0.3910076397423061  0.0756889836592000   T   T   T
  0.6895489018061837  0.7287109611859995  0.0760761972291573   T   T   T
  0.9777983179666766  0.7236285979981942  0.0760683817886286   T   T   T
  0.6902300365535612  0.2265891015582192  0.1324979466228158   T   T   T
  0.9782389423754815  0.2256791788019886  0.1319514353780460   T   T   T
  0.0219394171151633  0.5597323457894223  0.1332720715643139   T   T   T
  0.3100106293425071  0.5583930445018517  0.1332914980771289   T   T   T
  0.3552525481478249  0.8928042616403672  0.1322097556080500   T   T   T
  0.6443135341768709  0.8925396685607774  0.1325034529017758   T   T   T
  0.3341015561832003  0.2263151244371193  0.1458295843021622   T   T   T
  0.6664005522815156  0.5597922176197139  0.1461130472746847   T   T   T
  0.0001723210503380  0.8927480752730889  0.1465512886757241   T   T   T
  0.1669562644144255  0.0593483725921106  0.1744461316252283   T   T   T
  0.5028005168273370  0.3923943846940682  0.1736869789384115   T   T   T
  0.8335103946934311  0.7261165302158725  0.1741223543081994   T   T   T
  0.5189467049903403  0.0601416680423783  0.1827529637654888   T   T   T
  0.8154061438546925  0.0586928223371197  0.1830131830821047   T   T   T
  0.1474241713527372  0.3927396183731970  0.1845593159456701   T   T   T
  0.8524596470944347  0.3934216378230522  0.1838058452592756   T   T   T
  0.1832776317145696  0.7254326870496189  0.1837157447639195   T   T   T
  0.4783243806225493  0.7248431536597746  0.1815879229450120   T   T   T
  0.4825638643745041  0.2238610052000963  0.2422490776135468   T   T   T
  0.5173325131258178  0.5601282888979072  0.2437037344508614   T   T   T
  0.1843449270513801  0.2277739525053364  0.2424964017256461   T   T   T
  0.8128404181858051  0.5602223593843038  0.2423106347882565   T   T   T
  0.1474732124491365  0.8900605799737595  0.2430445833665266   T   T   T
  0.8518252329553444  0.8927547896590261  0.2428238185168828   T   T   T
  0.8341692000416111  0.2274027484690179  0.2515639803545446   T   T   T
  0.1635787873297396  0.5599635543753473  0.2544754339202178   T   T   T
  0.4985358222303264  0.8941816518941882  0.2509594470907602   T   T   T
  0.6676046474005001  0.0592294262726741  0.2792609844565632   T   T   T
  0.9945910237965758  0.4024711143858148  0.2837335403105924   T   T   T
  0.3383520470054692  0.7249920840013593  0.2782033728501261   T   T   T
  0.0225616033830365  0.0590143005505106  0.2927760927700830   T   T   T
  0.3109213175779534  0.0603434722854825  0.2932250595836154   T   T   T
  0.3664695637117827  0.3921222387059487  0.2896093722676940   T   T   T
  0.6467212722528972  0.3933307147737402  0.2940804461183994   T   T   T
  0.6854718171071947  0.7297662613885181  0.2900974335748452   T   T   T
  0.9765026400282443  0.7184010117920060  0.2965779133182808   T   T   T
  0.6896068188079549  0.2273029283062057  0.3496728646076041   T   T   T
  0.9782469483628693  0.2235571932227662  0.3493303913123115   T   T   T
  0.2997407291882752  0.5501330483229394  0.3517792790983897   T   T   T
  0.3558371571252278  0.8961608895389863  0.3492668239857483   T   T   T
  0.6430070221017128  0.8913627137590188  0.3499401059055879   T   T   T
  0.3305818920962817  0.2313785230395899  0.3614949783953740   T   T   T
  0.6709851439588533  0.5598240575498413  0.3632343371785858   T   T   T
  0.0018269172542704  0.8913961788098848  0.3623677954520351   T   T   T
 
  0.00000000E+00  0.00000000E+00  0.00000000E+00
  0.00000000E+00  0.00000000E+00  0.00000000E+00
  0.00000000E+00  0.00000000E+00  0.00000000E+00
  0.00000000E+00  0.00000000E+00  0.00000000E+00
  0.00000000E+00  0.00000000E+00  0.00000000E+00
  0.00000000E+00  0.00000000E+00  0.00000000E+00
  0.00000000E+00  0.00000000E+00  0.00000000E+00
  0.00000000E+00  0.00000000E+00  0.00000000E+00
  0.00000000E+00  0.00000000E+00  0.00000000E+00
  0.00000000E+00  0.00000000E+00  0.00000000E+00
  0.00000000E+00  0.00000000E+00  0.00000000E+00
  0.00000000E+00  0.00000000E+00  0.00000000E+00
  0.00000000E+00  0.00000000E+00  0.00000000E+00
  0.00000000E+00  0.00000000E+00  0.00000000E+00
  0.00000000E+00  0.00000000E+00  0.00000000E+00
  0.00000000E+00  0.00000000E+00  0.00000000E+00
  0.00000000E+00  0.00000000E+00  0.00000000E+00
  0.00000000E+00  0.00000000E+00  0.00000000E+00
  0.00000000E+00  0.00000000E+00  0.00000000E+00
  0.00000000E+00  0.00000000E+00  0.00000000E+00
  0.00000000E+00  0.00000000E+00  0.00000000E+00
  0.00000000E+00  0.00000000E+00  0.00000000E+00
  0.00000000E+00  0.00000000E+00  0.00000000E+00
  0.00000000E+00  0.00000000E+00  0.00000000E+00
  0.00000000E+00  0.00000000E+00  0.00000000E+00
  0.00000000E+00  0.00000000E+00  0.00000000E+00
  0.00000000E+00  0.00000000E+00  0.00000000E+00
  0.00000000E+00  0.00000000E+00  0.00000000E+00
  0.00000000E+00  0.00000000E+00  0.00000000E+00
  0.00000000E+00  0.00000000E+00  0.00000000E+00
  0.00000000E+00  0.00000000E+00  0.00000000E+00
  0.00000000E+00  0.00000000E+00  0.00000000E+00
  0.00000000E+00  0.00000000E+00  0.00000000E+00
  0.00000000E+00  0.00000000E+00  0.00000000E+00
  0.00000000E+00  0.00000000E+00  0.00000000E+00
  0.00000000E+00  0.00000000E+00  0.00000000E+00
  0.00000000E+00  0.00000000E+00  0.00000000E+00
  0.00000000E+00  0.00000000E+00  0.00000000E+00
  0.00000000E+00  0.00000000E+00  0.00000000E+00
  0.00000000E+00  0.00000000E+00  0.00000000E+00
  0.00000000E+00  0.00000000E+00  0.00000000E+00
  0.00000000E+00  0.00000000E+00  0.00000000E+00
  0.00000000E+00  0.00000000E+00  0.00000000E+00
  0.00000000E+00  0.00000000E+00  0.00000000E+00
  0.00000000E+00  0.00000000E+00  0.00000000E+00
  0.00000000E+00  0.00000000E+00  0.00000000E+00
  0.00000000E+00  0.00000000E+00  0.00000000E+00
  0.00000000E+00  0.00000000E+00  0.00000000E+00
  0.00000000E+00  0.00000000E+00  0.00000000E+00
  0.00000000E+00  0.00000000E+00  0.00000000E+00
  0.00000000E+00  0.00000000E+00  0.00000000E+00
  0.00000000E+00  0.00000000E+00  0.00000000E+00
  0.00000000E+00  0.00000000E+00  0.00000000E+00
  0.00000000E+00  0.00000000E+00  0.00000000E+00
  0.00000000E+00  0.00000000E+00  0.00000000E+00
  0.00000000E+00  0.00000000E+00  0.00000000E+00
  0.00000000E+00  0.00000000E+00  0.00000000E+00
  0.00000000E+00  0.00000000E+00  0.00000000E+00
  0.00000000E+00  0.00000000E+00  0.00000000E+00
  0.00000000E+00  0.00000000E+00  0.00000000E+00
  0.00000000E+00  0.00000000E+00  0.00000000E+00
  0.00000000E+00  0.00000000E+00  0.00000000E+00
  0.00000000E+00  0.00000000E+00  0.00000000E+00
  0.00000000E+00  0.00000000E+00  0.00000000E+00
  0.00000000E+00  0.00000000E+00  0.00000000E+00
  0.00000000E+00  0.00000000E+00  0.00000000E+00
  0.00000000E+00  0.00000000E+00  0.00000000E+00
  0.00000000E+00  0.00000000E+00  0.00000000E+00
  0.00000000E+00  0.00000000E+00  0.00000000E+00
  0.00000000E+00  0.00000000E+00  0.00000000E+00
  0.00000000E+00  0.00000000E+00  0.00000000E+00
  0.00000000E+00  0.00000000E+00  0.00000000E+00
  0.00000000E+00  0.00000000E+00  0.00000000E+00
  0.00000000E+00  0.00000000E+00  0.00000000E+00
  0.00000000E+00  0.00000000E+00  0.00000000E+00
  0.00000000E+00  0.00000000E+00  0.00000000E+00
  0.00000000E+00  0.00000000E+00  0.00000000E+00
  0.00000000E+00  0.00000000E+00  0.00000000E+00
  0.00000000E+00  0.00000000E+00  0.00000000E+00
  0.00000000E+00  0.00000000E+00  0.00000000E+00
  0.00000000E+00  0.00000000E+00  0.00000000E+00
  0.00000000E+00  0.00000000E+00  0.00000000E+00
  0.00000000E+00  0.00000000E+00  0.00000000E+00
  0.00000000E+00  0.00000000E+00  0.00000000E+00
  0.00000000E+00  0.00000000E+00  0.00000000E+00
  0.00000000E+00  0.00000000E+00  0.00000000E+00
  0.00000000E+00  0.00000000E+00  0.00000000E+00
  0.00000000E+00  0.00000000E+00  0.00000000E+00
  0.00000000E+00  0.00000000E+00  0.00000000E+00
