In O                                    
   1.00000000000000     
     9.6230998390600000    0.0000000000000000    0.0000000000000000
     0.0000000000000000   14.6922204141950008    0.0000000000000000
     0.0000000000000000    0.0000000000000000   26.1117985650409992
   In   O 
    36    53
Selective dynamics
Direct
  0.5031647039840934  0.0110300298044951  0.1054220595006427   T   T   T
  0.8305828086682919  0.1066663901196377  0.1047284585631699   T   T   T
  0.1648240910577904  0.1593495246346977  0.1066236900713944   T   T   T
  0.4997805874649507  0.2934317293266869  0.1073493943504289   T   T   T
  0.8362517761016037  0.3449949182128420  0.1043920190771046   T   T   T
  0.1635887465945738  0.4410079761026754  0.1045133840243524   T   T   T
  0.5001566097417468  0.4928305024076787  0.1074199646905705   T   T   T
  0.8331580303753292  0.6263928459753396  0.1076341897667612   T   T   T
  0.1702656170254085  0.6778069329221948  0.1035172347536906   T   T   T
  0.4971870278955009  0.7740046807172274  0.1048695048829126   T   T   T
  0.8327213567393613  0.8260990420478365  0.1070724127920324   T   T   T
  0.1670329844240002  0.9595723518820393  0.1076483943964889   T   T   T
 -0.0001634430751266  0.0017340685264344  0.2169863318008187   T   T   T
  0.3314497250034079  0.1204694082671133  0.2137367893356005   T   T   T
  0.6667423140615027  0.1692719878515816  0.2079197828125776   T   T   T
  0.9991124646428294  0.2845150609246129  0.2089511164302295   T   T   T
  0.3323796139028813  0.3355776152779737  0.2162693257664189   T   T   T
  0.6667758551408963  0.4518139089978623  0.2160386995412786   T   T   T
  0.9997191402955280  0.5014498346911320  0.2089734191683572   T   T   T
  0.3340912383333104  0.6180148641405235  0.2085722695881755   T   T   T
  0.6675667222886658  0.6692418963032103  0.2170962670253879   T   T   T
  0.0044700694229899  0.7842160478128327  0.2134793841663515   T   T   T
  0.3347053945591972  0.8354269194991216  0.2096513446868562   T   T   T
  0.6684153328891457  0.9497390656460921  0.2098040534953371   T   T   T
  0.4864458248888264  0.0026958464553374  0.3145223593119633   T   T   T
  0.8332172659269110  0.1265599221253791  0.3190998032420365   T   T   T
  0.1678358921384634  0.1793787020608284  0.3203459490112193   T   T   T
  0.4970445423626387  0.2745932590658532  0.3206129541543461   T   T   T
  0.8324071497653107  0.3260443747777768  0.3176429772832080   T   T   T
  0.1666903531314255  0.4583684526639833  0.3178102519883957   T   T   T
  0.5025278502030599  0.5107815452205215  0.3208543899381515   T   T   T
  0.8315555067562670  0.6034710417438400  0.3216072800855901   T   T   T
  0.1672993017123714  0.6569777216473625  0.3173483773115258   T   T   T
  0.4903676988122653  0.7897196912205691  0.3197269112908491   T   T   T
  0.8495028739602419  0.8341453304325022  0.3179152822550969   T   T   T
  0.1616745020395579  0.9423042487495912  0.3217124083296632   T   T   T
  0.6661451419206869  0.0590760885317439  0.0637963368779221   T   T   T
  0.0004662187956184  0.3923674565739604  0.0630967377166027   T   T   T
  0.3344082335745776  0.7266029893981937  0.0628017511749652   T   T   T
  0.0219331221877828  0.0611033360043279  0.0756913252423652   T   T   T
  0.3111250613512392  0.0572347147932675  0.0767471818089132   T   T   T
  0.3557842219987083  0.3950483079058036  0.0762347293561241   T   T   T
  0.6441961215563360  0.3908743920183930  0.0762242558511856   T   T   T
  0.6889852842612358  0.7286671237780434  0.0760677566195149   T   T   T
  0.9773054336827973  0.7235937709278044  0.0760766985040459   T   T   T
  0.6883769079605780  0.2265063943167918  0.1319279113583401   T   T   T
  0.9763689450385654  0.2255369108913733  0.1324583905609151   T   T   T
  0.0223966780641265  0.5596769899243038  0.1325045897500790   T   T   T
  0.3114458160875002  0.5594056021220984  0.1321831177793320   T   T   T
  0.3566396141232937  0.8937548632499430  0.1333329755183555   T   T   T
  0.6447649340183382  0.8924649070419679  0.1332868818789276   T   T   T
  0.3325232663000539  0.2258240307099684  0.1457840703628528   T   T   T
  0.6665347946185251  0.5594906753576745  0.1464645207439487   T   T   T
  0.0002236928379892  0.8923998040680182  0.1461615674084676   T   T   T
  0.1637758381710543  0.0598504352884606  0.1737108348490689   T   T   T
  0.4995926676973129  0.3928971980325760  0.1743741438616218   T   T   T
  0.8332001537365628  0.7259986087454945  0.1740841568716817   T   T   T
  0.5192422618956301  0.0594113719820080  0.1845584666536500   T   T   T
  0.8140995426070270  0.0587527619208035  0.1838296919644699   T   T   T
  0.1476980302931473  0.3920821489988632  0.1827766102541619   T   T   T
  0.8512650529946142  0.3934715421914425  0.1830181115103532   T   T   T
  0.1883711511333151  0.7272901793549561  0.1815983944311775   T   T   T
  0.4833408683754754  0.7267270604271568  0.1837372038802651   T   T   T
  0.4823369440622519  0.2244148304985416  0.2424783982434864   T   T   T
  0.5191567097279560  0.5620825794591953  0.2430657265309571   T   T   T
  0.1841511517392830  0.2283198564427055  0.2422740734177359   T   T   T
  0.8147583674192839  0.5594117489228321  0.2428078978239906   T   T   T
  0.1492339801789239  0.8920264175032167  0.2436691939981621   T   T   T
  0.8537696570516096  0.8919137891838397  0.2423150860884302   T   T   T
  0.8325090783439605  0.2248463552555741  0.2515419669595774   T   T   T
  0.1681001639736129  0.5580256723953414  0.2509761284646357   T   T   T
  0.5030524373229052  0.8922292471265726  0.2545298276941715   T   T   T
  0.6720080354429542  0.0497219941071686  0.2838101821040367   T   T   T
  0.9990310657182125  0.3930374078034792  0.2792937527160633   T   T   T
  0.3282531706504914  0.7271905161763856  0.2782460291212562   T   T   T
  0.0199018863934742  0.0588805227676251  0.2940706964314450   T   T   T
  0.3001479673280590  0.0600139248129701  0.2896125121591749   T   T   T
  0.3557499568898238  0.3917698389776465  0.2932578655779691   T   T   T
  0.6441071426819329  0.3932412691561306  0.2927603653310857   T   T   T
  0.6901260351316667  0.7337120068254609  0.2965545064214951   T   T   T
  0.9811526039422852  0.7224498485756484  0.2901340471836635   T   T   T
  0.6885766026928820  0.2287161626963325  0.3493388427495525   T   T   T
  0.9771920508801304  0.2248771918839622  0.3496820412885990   T   T   T
  0.0235068972475479  0.5608042470645309  0.3499269617512772   T   T   T
  0.3107422177634728  0.5559648183325211  0.3493044001994936   T   T   T
  0.3668557103868478  0.9020729632365903  0.3517864138744827   T   T   T
  0.3363029653938234  0.2207596311683044  0.3614993148868878   T   T   T
  0.6647319526864671  0.5606706178825969  0.3623848154892627   T   T   T
  0.9955816160688598  0.8924625604780079  0.3632040508668185   T   T   T
 
  0.00000000E+00  0.00000000E+00  0.00000000E+00
  0.00000000E+00  0.00000000E+00  0.00000000E+00
  0.00000000E+00  0.00000000E+00  0.00000000E+00
  0.00000000E+00  0.00000000E+00  0.00000000E+00
  0.00000000E+00  0.00000000E+00  0.00000000E+00
  0.00000000E+00  0.00000000E+00  0.00000000E+00
  0.00000000E+00  0.00000000E+00  0.00000000E+00
  0.00000000E+00  0.00000000E+00  0.00000000E+00
  0.00000000E+00  0.00000000E+00  0.00000000E+00
  0.00000000E+00  0.00000000E+00  0.00000000E+00
  0.00000000E+00  0.00000000E+00  0.00000000E+00
  0.00000000E+00  0.00000000E+00  0.00000000E+00
  0.00000000E+00  0.00000000E+00  0.00000000E+00
  0.00000000E+00  0.00000000E+00  0.00000000E+00
  0.00000000E+00  0.00000000E+00  0.00000000E+00
  0.00000000E+00  0.00000000E+00  0.00000000E+00
  0.00000000E+00  0.00000000E+00  0.00000000E+00
  0.00000000E+00  0.00000000E+00  0.00000000E+00
  0.00000000E+00  0.00000000E+00  0.00000000E+00
  0.00000000E+00  0.00000000E+00  0.00000000E+00
  0.00000000E+00  0.00000000E+00  0.00000000E+00
  0.00000000E+00  0.00000000E+00  0.00000000E+00
  0.00000000E+00  0.00000000E+00  0.00000000E+00
  0.00000000E+00  0.00000000E+00  0.00000000E+00
  0.00000000E+00  0.00000000E+00  0.00000000E+00
  0.00000000E+00  0.00000000E+00  0.00000000E+00
  0.00000000E+00  0.00000000E+00  0.00000000E+00
  0.00000000E+00  0.00000000E+00  0.00000000E+00
  0.00000000E+00  0.00000000E+00  0.00000000E+00
  0.00000000E+00  0.00000000E+00  0.00000000E+00
  0.00000000E+00  0.00000000E+00  0.00000000E+00
  0.00000000E+00  0.00000000E+00  0.00000000E+00
  0.00000000E+00  0.00000000E+00  0.00000000E+00
  0.00000000E+00  0.00000000E+00  0.00000000E+00
  0.00000000E+00  0.00000000E+00  0.00000000E+00
  0.00000000E+00  0.00000000E+00  0.00000000E+00
  0.00000000E+00  0.00000000E+00  0.00000000E+00
  0.00000000E+00  0.00000000E+00  0.00000000E+00
  0.00000000E+00  0.00000000E+00  0.00000000E+00
  0.00000000E+00  0.00000000E+00  0.00000000E+00
  0.00000000E+00  0.00000000E+00  0.00000000E+00
  0.00000000E+00  0.00000000E+00  0.00000000E+00
  0.00000000E+00  0.00000000E+00  0.00000000E+00
  0.00000000E+00  0.00000000E+00  0.00000000E+00
  0.00000000E+00  0.00000000E+00  0.00000000E+00
  0.00000000E+00  0.00000000E+00  0.00000000E+00
  0.00000000E+00  0.00000000E+00  0.00000000E+00
  0.00000000E+00  0.00000000E+00  0.00000000E+00
  0.00000000E+00  0.00000000E+00  0.00000000E+00
  0.00000000E+00  0.00000000E+00  0.00000000E+00
  0.00000000E+00  0.00000000E+00  0.00000000E+00
  0.00000000E+00  0.00000000E+00  0.00000000E+00
  0.00000000E+00  0.00000000E+00  0.00000000E+00
  0.00000000E+00  0.00000000E+00  0.00000000E+00
  0.00000000E+00  0.00000000E+00  0.00000000E+00
  0.00000000E+00  0.00000000E+00  0.00000000E+00
  0.00000000E+00  0.00000000E+00  0.00000000E+00
  0.00000000E+00  0.00000000E+00  0.00000000E+00
  0.00000000E+00  0.00000000E+00  0.00000000E+00
  0.00000000E+00  0.00000000E+00  0.00000000E+00
  0.00000000E+00  0.00000000E+00  0.00000000E+00
  0.00000000E+00  0.00000000E+00  0.00000000E+00
  0.00000000E+00  0.00000000E+00  0.00000000E+00
  0.00000000E+00  0.00000000E+00  0.00000000E+00
  0.00000000E+00  0.00000000E+00  0.00000000E+00
  0.00000000E+00  0.00000000E+00  0.00000000E+00
  0.00000000E+00  0.00000000E+00  0.00000000E+00
  0.00000000E+00  0.00000000E+00  0.00000000E+00
  0.00000000E+00  0.00000000E+00  0.00000000E+00
  0.00000000E+00  0.00000000E+00  0.00000000E+00
  0.00000000E+00  0.00000000E+00  0.00000000E+00
  0.00000000E+00  0.00000000E+00  0.00000000E+00
  0.00000000E+00  0.00000000E+00  0.00000000E+00
  0.00000000E+00  0.00000000E+00  0.00000000E+00
  0.00000000E+00  0.00000000E+00  0.00000000E+00
  0.00000000E+00  0.00000000E+00  0.00000000E+00
  0.00000000E+00  0.00000000E+00  0.00000000E+00
  0.00000000E+00  0.00000000E+00  0.00000000E+00
  0.00000000E+00  0.00000000E+00  0.00000000E+00
  0.00000000E+00  0.00000000E+00  0.00000000E+00
  0.00000000E+00  0.00000000E+00  0.00000000E+00
  0.00000000E+00  0.00000000E+00  0.00000000E+00
  0.00000000E+00  0.00000000E+00  0.00000000E+00
  0.00000000E+00  0.00000000E+00  0.00000000E+00
  0.00000000E+00  0.00000000E+00  0.00000000E+00
  0.00000000E+00  0.00000000E+00  0.00000000E+00
  0.00000000E+00  0.00000000E+00  0.00000000E+00
  0.00000000E+00  0.00000000E+00  0.00000000E+00
  0.00000000E+00  0.00000000E+00  0.00000000E+00
