In O                                    
   1.00000000000000     
     9.6230998390600000    0.0000000000000000    0.0000000000000000
     0.0000000000000000   14.6922204141950008    0.0000000000000000
     0.0000000000000000    0.0000000000000000   26.1117985650409992
   In   O 
    36    53
Selective dynamics
Direct
  0.5029291520923850  0.0111656559522053  0.1046709726253462   T   T   T
  0.8306178496339569  0.1077221047526776  0.1044952370767073   T   T   T
  0.1664300671262883  0.1591479399479371  0.1075479074026976   T   T   T
  0.5001972247406704  0.2930272372997912  0.1075754613537788   T   T   T
  0.8360156874468322  0.3445571444430739  0.1044923356237635   T   T   T
  0.1637229707899224  0.4410971918121101  0.1046363838601652   T   T   T
  0.4994117656053050  0.4925442967161899  0.1074519069667299   T   T   T
  0.8334220982822189  0.6264918990871254  0.1075173215274361   T   T   T
  0.1693437875247954  0.6780728813215826  0.1048898253585175   T   T   T
  0.4973246397367502  0.7742064035354963  0.1048890593771457   T   T   T
  0.8332620142055371  0.8257995795605596  0.1075519671568632   T   T   T
  0.1671419350967820  0.9597252346147638  0.1074757290242987   T   T   T
  0.9994680578193684  0.0007221448201423  0.2158093123740297   T   T   T
  0.3348579071131123  0.1174007556775072  0.2157326080095234   T   T   T
  0.6680286948049092  0.1673532075720584  0.2089212622101518   T   T   T
  0.9986239903843741  0.2848396611026873  0.2089119729251457   T   T   T
  0.3318664311061822  0.3347688758468417  0.2157192796644318   T   T   T
  0.6671830254780217  0.4514985645425965  0.2158614693316537   T   T   T
  0.9994737518391463  0.5016108071332031  0.2089791846277679   T   T   T
  0.3337671766722176  0.6175975112479044  0.2092342414934585   T   T   T
  0.6662501249948153  0.6677781003253709  0.2160307743696645   T   T   T
  0.0004318458811673  0.7843867620979456  0.2160673113695111   T   T   T
  0.3329233331457663  0.8346067114893213  0.2091914887062945   T   T   T
  0.6670904983765928  0.9506241221254045  0.2090236449552938   T   T   T
  0.5024803995214508  0.9912906943261501  0.3180439904882069   T   T   T
  0.8338163021075859  0.1254381106475213  0.3183984635609212   T   T   T
  0.1671288699180570  0.1772907875542791  0.3186038688755278   T   T   T
  0.4994424760554768  0.2748860382248838  0.3186409133389995   T   T   T
  0.8328320295345260  0.3266966789800752  0.3183806420443465   T   T   T
  0.1641759666848585  0.4608066899590396  0.3180273655282998   T   T   T
  0.5038845833332467  0.5113069246395782  0.3210990696919863   T   T   T
  0.8305327258848517  0.6082163165246551  0.3205172735188853   T   T   T
  0.1666560855042193  0.6596963691826926  0.3178825034541132   T   T   T
  0.5000167907104723  0.7923360767349167  0.3179113081867875   T   T   T
  0.8361325589948931  0.8440046426170520  0.3204849333671924   T   T   T
  0.1628665966478581  0.9408338763288012  0.3210858839093566   T   T   T
  0.6667552352945054  0.0592273000949140  0.0634205495346065   T   T   T
 -0.0000860424741304  0.3929575478727606  0.0633897970696528   T   T   T
  0.3333951075300430  0.7260562145504686  0.0636666643467512   T   T   T
  0.0228367799085338  0.0619886367040140  0.0761298380318406   T   T   T
  0.3109905323956693  0.0569233839192511  0.0760870170059247   T   T   T
  0.3556775728524877  0.3952614661961084  0.0760935215629389   T   T   T
  0.6437816977304595  0.3901990127905772  0.0761418186045376   T   T   T
  0.6892343868115542  0.7286209564876777  0.0760582022269902   T   T   T
  0.9774850974358222  0.7236885956193715  0.0760568073921017   T   T   T
  0.6893265959068859  0.2262442779322137  0.1326366204557111   T   T   T
  0.9773263013262418  0.2259293558126565  0.1326150862407308   T   T   T
  0.0222447835421915  0.5597201511435309  0.1325851482413933   T   T   T
  0.3107273889044390  0.5593774166254389  0.1327642551961718   T   T   T
  0.3559030400230073  0.8928747848327513  0.1327558913723458   T   T   T
  0.6443978224943093  0.8924938360192755  0.1326235124899618   T   T   T
  0.3333902352042670  0.2260373760757233  0.1459939321259098   T   T   T
  0.6664387482009289  0.5594514436762826  0.1460343777068387   T   T   T
  0.0002566494837917  0.8927830479433132  0.1460333644477564   T   T   T
  0.1673739219674908  0.0590507278622337  0.1744020031518892   T   T   T
  0.4993394057265273  0.3931903442040106  0.1743974292161375   T   T   T
  0.8333891807848174  0.7260464808974638  0.1741718903970279   T   T   T
  0.5190649341704606  0.0596986441498284  0.1831545346107924   T   T   T
  0.8151885520219148  0.0585444111318069  0.1829361511344421   T   T   T
  0.1476546736973523  0.3924719300346127  0.1831254499216469   T   T   T
  0.8514775951469139  0.3936223293918863  0.1829337411048190   T   T   T
  0.1851700988257170  0.7268152557146896  0.1833156259504007   T   T   T
  0.4814671022430543  0.7253553115582778  0.1833036151072824   T   T   T
  0.4819760290258202  0.2252978293524284  0.2415741554698300   T   T   T
  0.5177788980790546  0.5596151796771979  0.2427010469318455   T   T   T
  0.1846931887101353  0.2268623466122147  0.2415519198201822   T   T   T
  0.8149020226973465  0.5588444783858333  0.2423368431449658   T   T   T
  0.1488766713712512  0.8925659913968691  0.2426781696940340   T   T   T
  0.8517539419492186  0.8933197820333376  0.2423030280560614   T   T   T
  0.8333445238077298  0.2260559607354503  0.2522710993558962   T   T   T
  0.1668332331573837  0.5590848345879316  0.2514378725958124   T   T   T
  0.4997473845624185  0.8930526877067940  0.2514636880591378   T   T   T
  0.6673355636603273  0.0593752576205166  0.2795747808821997   T   T   T
  0.9992763220737972  0.3927871419906776  0.2795712737286694   T   T   T
  0.3333510650213423  0.7260463001006362  0.2796803718102572   T   T   T
  0.0235110293452486  0.0598026479872367  0.2923964563141466   T   T   T
  0.3155552328622107  0.0659844077677025  0.2958327862658992   T   T   T
  0.3512126292087068  0.3861807172968461  0.2958124188977000   T   T   T
  0.6432325370939754  0.3923737302183653  0.2924166462656133   T   T   T
  0.6889938344925625  0.7258172370683761  0.2926637582704287   T   T   T
  0.9776841103618319  0.7262924841828177  0.2926600272481875   T   T   T
  0.6873775291080836  0.2281116024554349  0.3504951258170313   T   T   T
  0.9792824134654091  0.2240460986929403  0.3504760679883056   T   T   T
  0.0224096341078894  0.5632450643284476  0.3498890753586973   T   T   T
  0.3110417735754645  0.5561695704079708  0.3491423867182184   T   T   T
  0.3556510690156520  0.8958989120659023  0.3491595770528210   T   T   T
  0.6442478128699048  0.8888343132419900  0.3499014280434788   T   T   T
  0.6679094307479527  0.5593304622674933  0.3623007410829905   T   T   T
  0.9987319776794117  0.8929168153773399  0.3622683283100310   T   T   T
 
  0.00000000E+00  0.00000000E+00  0.00000000E+00
  0.00000000E+00  0.00000000E+00  0.00000000E+00
  0.00000000E+00  0.00000000E+00  0.00000000E+00
  0.00000000E+00  0.00000000E+00  0.00000000E+00
  0.00000000E+00  0.00000000E+00  0.00000000E+00
  0.00000000E+00  0.00000000E+00  0.00000000E+00
  0.00000000E+00  0.00000000E+00  0.00000000E+00
  0.00000000E+00  0.00000000E+00  0.00000000E+00
  0.00000000E+00  0.00000000E+00  0.00000000E+00
  0.00000000E+00  0.00000000E+00  0.00000000E+00
  0.00000000E+00  0.00000000E+00  0.00000000E+00
  0.00000000E+00  0.00000000E+00  0.00000000E+00
  0.00000000E+00  0.00000000E+00  0.00000000E+00
  0.00000000E+00  0.00000000E+00  0.00000000E+00
  0.00000000E+00  0.00000000E+00  0.00000000E+00
  0.00000000E+00  0.00000000E+00  0.00000000E+00
  0.00000000E+00  0.00000000E+00  0.00000000E+00
  0.00000000E+00  0.00000000E+00  0.00000000E+00
  0.00000000E+00  0.00000000E+00  0.00000000E+00
  0.00000000E+00  0.00000000E+00  0.00000000E+00
  0.00000000E+00  0.00000000E+00  0.00000000E+00
  0.00000000E+00  0.00000000E+00  0.00000000E+00
  0.00000000E+00  0.00000000E+00  0.00000000E+00
  0.00000000E+00  0.00000000E+00  0.00000000E+00
  0.00000000E+00  0.00000000E+00  0.00000000E+00
  0.00000000E+00  0.00000000E+00  0.00000000E+00
  0.00000000E+00  0.00000000E+00  0.00000000E+00
  0.00000000E+00  0.00000000E+00  0.00000000E+00
  0.00000000E+00  0.00000000E+00  0.00000000E+00
  0.00000000E+00  0.00000000E+00  0.00000000E+00
  0.00000000E+00  0.00000000E+00  0.00000000E+00
  0.00000000E+00  0.00000000E+00  0.00000000E+00
  0.00000000E+00  0.00000000E+00  0.00000000E+00
  0.00000000E+00  0.00000000E+00  0.00000000E+00
  0.00000000E+00  0.00000000E+00  0.00000000E+00
  0.00000000E+00  0.00000000E+00  0.00000000E+00
  0.00000000E+00  0.00000000E+00  0.00000000E+00
  0.00000000E+00  0.00000000E+00  0.00000000E+00
  0.00000000E+00  0.00000000E+00  0.00000000E+00
  0.00000000E+00  0.00000000E+00  0.00000000E+00
  0.00000000E+00  0.00000000E+00  0.00000000E+00
  0.00000000E+00  0.00000000E+00  0.00000000E+00
  0.00000000E+00  0.00000000E+00  0.00000000E+00
  0.00000000E+00  0.00000000E+00  0.00000000E+00
  0.00000000E+00  0.00000000E+00  0.00000000E+00
  0.00000000E+00  0.00000000E+00  0.00000000E+00
  0.00000000E+00  0.00000000E+00  0.00000000E+00
  0.00000000E+00  0.00000000E+00  0.00000000E+00
  0.00000000E+00  0.00000000E+00  0.00000000E+00
  0.00000000E+00  0.00000000E+00  0.00000000E+00
  0.00000000E+00  0.00000000E+00  0.00000000E+00
  0.00000000E+00  0.00000000E+00  0.00000000E+00
  0.00000000E+00  0.00000000E+00  0.00000000E+00
  0.00000000E+00  0.00000000E+00  0.00000000E+00
  0.00000000E+00  0.00000000E+00  0.00000000E+00
  0.00000000E+00  0.00000000E+00  0.00000000E+00
  0.00000000E+00  0.00000000E+00  0.00000000E+00
  0.00000000E+00  0.00000000E+00  0.00000000E+00
  0.00000000E+00  0.00000000E+00  0.00000000E+00
  0.00000000E+00  0.00000000E+00  0.00000000E+00
  0.00000000E+00  0.00000000E+00  0.00000000E+00
  0.00000000E+00  0.00000000E+00  0.00000000E+00
  0.00000000E+00  0.00000000E+00  0.00000000E+00
  0.00000000E+00  0.00000000E+00  0.00000000E+00
  0.00000000E+00  0.00000000E+00  0.00000000E+00
  0.00000000E+00  0.00000000E+00  0.00000000E+00
  0.00000000E+00  0.00000000E+00  0.00000000E+00
  0.00000000E+00  0.00000000E+00  0.00000000E+00
  0.00000000E+00  0.00000000E+00  0.00000000E+00
  0.00000000E+00  0.00000000E+00  0.00000000E+00
  0.00000000E+00  0.00000000E+00  0.00000000E+00
  0.00000000E+00  0.00000000E+00  0.00000000E+00
  0.00000000E+00  0.00000000E+00  0.00000000E+00
  0.00000000E+00  0.00000000E+00  0.00000000E+00
  0.00000000E+00  0.00000000E+00  0.00000000E+00
  0.00000000E+00  0.00000000E+00  0.00000000E+00
  0.00000000E+00  0.00000000E+00  0.00000000E+00
  0.00000000E+00  0.00000000E+00  0.00000000E+00
  0.00000000E+00  0.00000000E+00  0.00000000E+00
  0.00000000E+00  0.00000000E+00  0.00000000E+00
  0.00000000E+00  0.00000000E+00  0.00000000E+00
  0.00000000E+00  0.00000000E+00  0.00000000E+00
  0.00000000E+00  0.00000000E+00  0.00000000E+00
  0.00000000E+00  0.00000000E+00  0.00000000E+00
  0.00000000E+00  0.00000000E+00  0.00000000E+00
  0.00000000E+00  0.00000000E+00  0.00000000E+00
  0.00000000E+00  0.00000000E+00  0.00000000E+00
  0.00000000E+00  0.00000000E+00  0.00000000E+00
  0.00000000E+00  0.00000000E+00  0.00000000E+00
