In O                                    
   1.00000000000000     
     9.6230998390600000    0.0000000000000000    0.0000000000000000
     0.0000000000000000   14.6922204141950008    0.0000000000000000
     0.0000000000000000    0.0000000000000000   26.1117985650409992
   In   O 
    36    53
Selective dynamics
Direct
  0.5028014352432751  0.0122133934170971  0.1046885452443998   T   T   T
  0.8301996796624020  0.1078452721798371  0.1054382745340171   T   T   T
  0.1663585588319220  0.1593002199660952  0.1076124939908882   T   T   T
  0.5005844432246802  0.2928892556702634  0.1071201551194852   T   T   T
  0.8361346844508426  0.3448309862117830  0.1048698541429456   T   T   T
  0.1629813274154642  0.4410764199388442  0.1035311675176197   T   T   T
  0.5001604610020723  0.4925643000684105  0.1075504857702620   T   T   T
  0.8332335751836610  0.6261777940759210  0.1074984800879837   T   T   T
  0.1696420943064664  0.6779177073934671  0.1045322158854258   T   T   T
  0.4971586388052476  0.7739465637259183  0.1043910561611926   T   T   T
  0.8334924687320233  0.8255529683348204  0.1074209949356233   T   T   T
  0.1685609507683728  0.9595121054043377  0.1066263827455539   T   T   T
  0.0018970759550232  0.9982457754316783  0.2137318771617111   T   T   T
  0.3333976633271128  0.1169192162841192  0.2170185098046027   T   T   T
  0.6648592925516926  0.1691857457281073  0.2097985587810482   T   T   T
  0.9986136307972755  0.2833918883784925  0.2096588376516944   T   T   T
  0.3288450605130398  0.3345942421903674  0.2134962151730094   T   T   T
  0.6657245615855644  0.4497555922621760  0.2170858610600685   T   T   T
 -0.0007567211094504  0.5008729482720687  0.2085645043981953   T   T   T
  0.3336095895605857  0.6173761727712929  0.2088980415079090   T   T   T
  0.6665174460913601  0.6670066582926596  0.2160487212783309   T   T   T
  0.0009337105661219  0.7831202275577351  0.2163172451086899   T   T   T
  0.3343059739512049  0.8343449868083480  0.2089045943389005   T   T   T
  0.6666390622001347  0.9498189254597853  0.2080321577284258   T   T   T
  0.5000946523449020  0.9922416442890369  0.3191289358342488   T   T   T
  0.8468916937320861  0.1161062636848377  0.3144876694089085   T   T   T
  0.1716602170281455  0.1764274878515263  0.3217109569806191   T   T   T
  0.4837759864524636  0.2846819629479388  0.3179045274459245   T   T   T
  0.8430316201595965  0.3291135416894723  0.3196984251058381   T   T   T
  0.1659810851494546  0.4619139621031047  0.3173904352191710   T   T   T
  0.5016796105249701  0.5152152671073912  0.3215834260200280   T   T   T
  0.8307548580281567  0.6080546632661858  0.3208888235774745   T   T   T
  0.1667405869591630  0.6605218814788434  0.3177131799902722   T   T   T
  0.5009888379087135  0.7928187500810977  0.3176253298644619   T   T   T
  0.8363097568556778  0.8441866269940417  0.3206481202408755   T   T   T
  0.1655799858262325  0.9392422305857706  0.3203234669797212   T   T   T
  0.6674170196738358  0.0596019338565252  0.0637743526009205   T   T   T
  0.9988200805019261  0.3923050073763936  0.0627775438347496   T   T   T
  0.3328438213485537  0.7265312183063207  0.0631409220525554   T   T   T
  0.0222508435236640  0.0616428549317534  0.0767666286330176   T   T   T
  0.3114252617763741  0.0577566672839668  0.0756371151006505   T   T   T
  0.3558958384500516  0.3952215409113429  0.0761095000165039   T   T   T
  0.6443553583737274  0.3903020759992093  0.0760867079554971   T   T   T
  0.6892198420449859  0.7281210743982445  0.0762293840136755   T   T   T
  0.9774955958259760  0.7238364763203522  0.0762539772898577   T   T   T
  0.6885912247007823  0.2264306066540949  0.1332795639371191   T   T   T
  0.9768050411971255  0.2251838565381236  0.1333032314041459   T   T   T
  0.0218482394017924  0.5594391420821169  0.1322227171079084   T   T   T
  0.3108874391658509  0.5591355845503713  0.1324355733759810   T   T   T
  0.3569666840794397  0.8933631938660578  0.1324509791927172   T   T   T
  0.6449159666385056  0.8924417572145356  0.1320486657052470   T   T   T
  0.3330738744614504  0.2264918484373785  0.1461412914377660   T   T   T
  0.6668716796645398  0.5593392813438685  0.1464443829109330   T   T   T
  0.0008216877819450  0.8931144450158078  0.1457710954157533   T   T   T
  0.1695307373044891  0.0589343520062833  0.1737065708577826   T   T   T
  0.5001381908444402  0.3929129791447261  0.1741350389634753   T   T   T
  0.8336988787923353  0.7260324063371094  0.1744171709115152   T   T   T
  0.5191900231853351  0.0601734446215536  0.1837869062038276   T   T   T
  0.8141427828408315  0.0595320590988744  0.1846027023092841   T   T   T
  0.1449302193484118  0.3915568446702532  0.1816253801942068   T   T   T
  0.8499516702919581  0.3921420259515355  0.1837637001830274   T   T   T
  0.1855809585109616  0.7267404716948995  0.1827871948932096   T   T   T
  0.4820310752969518  0.7253082828187999  0.1829778001756240   T   T   T
  0.4794235578488530  0.2268038885467673  0.2423266482737849   T   T   T
  0.5185502731551179  0.5594904690065235  0.2428152299735211   T   T   T
  0.1840729821668796  0.2267657328208686  0.2436625154718403   T   T   T
  0.8142079961865838  0.5568623570957133  0.2430562435203822   T   T   T
  0.1491882357161129  0.8904367351660806  0.2422317137261582   T   T   T
  0.8510521948157855  0.8943886953259844  0.2425004898818620   T   T   T
  0.8302191138253657  0.2266412713465995  0.2545168111386399   T   T   T
  0.1653317446509555  0.5607629960785860  0.2509477556977875   T   T   T
  0.5008323006643344  0.8940417982619555  0.2515191180541990   T   T   T
  0.6613642280771612  0.0689365762709779  0.2837409308661414   T   T   T
  0.0050322281844284  0.3917617920725976  0.2782528927409736   T   T   T
  0.3344134444764823  0.7258965074530368  0.2792069036613267   T   T   T
  0.0331559481187785  0.0586844744706870  0.2896407467645106   T   T   T
  0.3133672928963568  0.0598276183601837  0.2940894484720897   T   T   T
  0.3521187695609352  0.3963489394787537  0.2901600075450354   T   T   T
  0.6431637209026472  0.3851169212242575  0.2965548703114151   T   T   T
  0.6892462056884412  0.7256279539699124  0.2927673715042209   T   T   T
  0.9776145672964508  0.7270888637264873  0.2932748821959331   T   T   T
  0.9664796296030469  0.2167800766087352  0.3517799962110588   T   T   T
  0.0226175842067352  0.5629905207052870  0.3492824766382595   T   T   T
  0.3097788400714615  0.5580830371354026  0.3499025869164588   T   T   T
  0.3562197263508555  0.8938754126630266  0.3496748793349415   T   T   T
  0.6448078703253403  0.8901486116447270  0.3493570275155826   T   T   T
  0.3378079202287154  0.2262552318492188  0.3631681587913243   T   T   T
  0.6685640254399148  0.5579859036891364  0.3623637906550922   T   T   T
  0.9971597282943335  0.8979126272391534  0.3615138257169909   T   T   T
 
  0.00000000E+00  0.00000000E+00  0.00000000E+00
  0.00000000E+00  0.00000000E+00  0.00000000E+00
  0.00000000E+00  0.00000000E+00  0.00000000E+00
  0.00000000E+00  0.00000000E+00  0.00000000E+00
  0.00000000E+00  0.00000000E+00  0.00000000E+00
  0.00000000E+00  0.00000000E+00  0.00000000E+00
  0.00000000E+00  0.00000000E+00  0.00000000E+00
  0.00000000E+00  0.00000000E+00  0.00000000E+00
  0.00000000E+00  0.00000000E+00  0.00000000E+00
  0.00000000E+00  0.00000000E+00  0.00000000E+00
  0.00000000E+00  0.00000000E+00  0.00000000E+00
  0.00000000E+00  0.00000000E+00  0.00000000E+00
  0.00000000E+00  0.00000000E+00  0.00000000E+00
  0.00000000E+00  0.00000000E+00  0.00000000E+00
  0.00000000E+00  0.00000000E+00  0.00000000E+00
  0.00000000E+00  0.00000000E+00  0.00000000E+00
  0.00000000E+00  0.00000000E+00  0.00000000E+00
  0.00000000E+00  0.00000000E+00  0.00000000E+00
  0.00000000E+00  0.00000000E+00  0.00000000E+00
  0.00000000E+00  0.00000000E+00  0.00000000E+00
  0.00000000E+00  0.00000000E+00  0.00000000E+00
  0.00000000E+00  0.00000000E+00  0.00000000E+00
  0.00000000E+00  0.00000000E+00  0.00000000E+00
  0.00000000E+00  0.00000000E+00  0.00000000E+00
  0.00000000E+00  0.00000000E+00  0.00000000E+00
  0.00000000E+00  0.00000000E+00  0.00000000E+00
  0.00000000E+00  0.00000000E+00  0.00000000E+00
  0.00000000E+00  0.00000000E+00  0.00000000E+00
  0.00000000E+00  0.00000000E+00  0.00000000E+00
  0.00000000E+00  0.00000000E+00  0.00000000E+00
  0.00000000E+00  0.00000000E+00  0.00000000E+00
  0.00000000E+00  0.00000000E+00  0.00000000E+00
  0.00000000E+00  0.00000000E+00  0.00000000E+00
  0.00000000E+00  0.00000000E+00  0.00000000E+00
  0.00000000E+00  0.00000000E+00  0.00000000E+00
  0.00000000E+00  0.00000000E+00  0.00000000E+00
  0.00000000E+00  0.00000000E+00  0.00000000E+00
  0.00000000E+00  0.00000000E+00  0.00000000E+00
  0.00000000E+00  0.00000000E+00  0.00000000E+00
  0.00000000E+00  0.00000000E+00  0.00000000E+00
  0.00000000E+00  0.00000000E+00  0.00000000E+00
  0.00000000E+00  0.00000000E+00  0.00000000E+00
  0.00000000E+00  0.00000000E+00  0.00000000E+00
  0.00000000E+00  0.00000000E+00  0.00000000E+00
  0.00000000E+00  0.00000000E+00  0.00000000E+00
  0.00000000E+00  0.00000000E+00  0.00000000E+00
  0.00000000E+00  0.00000000E+00  0.00000000E+00
  0.00000000E+00  0.00000000E+00  0.00000000E+00
  0.00000000E+00  0.00000000E+00  0.00000000E+00
  0.00000000E+00  0.00000000E+00  0.00000000E+00
  0.00000000E+00  0.00000000E+00  0.00000000E+00
  0.00000000E+00  0.00000000E+00  0.00000000E+00
  0.00000000E+00  0.00000000E+00  0.00000000E+00
  0.00000000E+00  0.00000000E+00  0.00000000E+00
  0.00000000E+00  0.00000000E+00  0.00000000E+00
  0.00000000E+00  0.00000000E+00  0.00000000E+00
  0.00000000E+00  0.00000000E+00  0.00000000E+00
  0.00000000E+00  0.00000000E+00  0.00000000E+00
  0.00000000E+00  0.00000000E+00  0.00000000E+00
  0.00000000E+00  0.00000000E+00  0.00000000E+00
  0.00000000E+00  0.00000000E+00  0.00000000E+00
  0.00000000E+00  0.00000000E+00  0.00000000E+00
  0.00000000E+00  0.00000000E+00  0.00000000E+00
  0.00000000E+00  0.00000000E+00  0.00000000E+00
  0.00000000E+00  0.00000000E+00  0.00000000E+00
  0.00000000E+00  0.00000000E+00  0.00000000E+00
  0.00000000E+00  0.00000000E+00  0.00000000E+00
  0.00000000E+00  0.00000000E+00  0.00000000E+00
  0.00000000E+00  0.00000000E+00  0.00000000E+00
  0.00000000E+00  0.00000000E+00  0.00000000E+00
  0.00000000E+00  0.00000000E+00  0.00000000E+00
  0.00000000E+00  0.00000000E+00  0.00000000E+00
  0.00000000E+00  0.00000000E+00  0.00000000E+00
  0.00000000E+00  0.00000000E+00  0.00000000E+00
  0.00000000E+00  0.00000000E+00  0.00000000E+00
  0.00000000E+00  0.00000000E+00  0.00000000E+00
  0.00000000E+00  0.00000000E+00  0.00000000E+00
  0.00000000E+00  0.00000000E+00  0.00000000E+00
  0.00000000E+00  0.00000000E+00  0.00000000E+00
  0.00000000E+00  0.00000000E+00  0.00000000E+00
  0.00000000E+00  0.00000000E+00  0.00000000E+00
  0.00000000E+00  0.00000000E+00  0.00000000E+00
  0.00000000E+00  0.00000000E+00  0.00000000E+00
  0.00000000E+00  0.00000000E+00  0.00000000E+00
  0.00000000E+00  0.00000000E+00  0.00000000E+00
  0.00000000E+00  0.00000000E+00  0.00000000E+00
  0.00000000E+00  0.00000000E+00  0.00000000E+00
  0.00000000E+00  0.00000000E+00  0.00000000E+00
  0.00000000E+00  0.00000000E+00  0.00000000E+00
