In O                                    
   1.00000000000000     
     9.6230998390600000    0.0000000000000000    0.0000000000000000
     0.0000000000000000   14.6922204141950008    0.0000000000000000
     0.0000000000000000    0.0000000000000000   26.1117985650409992
   In   O 
    36    53
Selective dynamics
Direct
  0.5029487633453495  0.0117737597811777  0.1043352350195140   T   T   T
  0.8303033341785162  0.1077047883317982  0.1044956712836346   T   T   T
  0.1668393636854174  0.1595252561273049  0.1074756015748969   T   T   T
  0.4997020855862960  0.2929373076911717  0.1077200147472987   T   T   T
  0.8367759938036423  0.3444663505958319  0.1034343780956637   T   T   T
  0.1637171817789786  0.4405496328188573  0.1048137441226943   T   T   T
  0.4992860730441216  0.4926989553236006  0.1070920496505005   T   T   T
  0.8336978566299895  0.6263127107187006  0.1077100754049107   T   T   T
  0.1697651658432132  0.6776917986054333  0.1054505823058908   T   T   T
  0.4973457489285285  0.7733424386596026  0.1047162527760829   T   T   T
  0.8314043542117431  0.8261891076583419  0.1066694133507107   T   T   T
  0.1665015120524828  0.9601197395418497  0.1073317630597677   T   T   T
  0.9990428483457454  0.0022016716974262  0.2162290521443223   T   T   T
  0.3334128702204616  0.1185374818157681  0.2160989595861497   T   T   T
  0.6664531295581205  0.1681307516421141  0.2089820726315868   T   T   T
  0.0008483051440341  0.2846180554208566  0.2085159061115544   T   T   T
  0.3343932859095961  0.3359291578651322  0.2172045513951965   T   T   T
  0.6714057835207374  0.4510028970234773  0.2134069533858035   T   T   T
  0.0014605502041357  0.5020207304593348  0.2096560593640322   T   T   T
  0.3352106851723558  0.6162070849039168  0.2097874899209047   T   T   T
  0.6666974244147311  0.6685343726380057  0.2171504653946535   T   T   T
  0.9980735404589028  0.7873071131952853  0.2137080757008836   T   T   T
  0.3334787377890252  0.8357958327459355  0.2078767006378947   T   T   T
  0.6655552942820528  0.9512484151453596  0.2088919808726034   T   T   T
  0.4988641065664242  0.9927271513066972  0.3175948933017977   T   T   T
  0.8333263825126350  0.1248636325463829  0.3177580917986526   T   T   T
  0.1692367539778017  0.1775120392445702  0.3209150728479421   T   T   T
  0.4982757759538069  0.2703131031878387  0.3216887342688378   T   T   T
  0.8340595638830056  0.3236406251154422  0.3172917132711021   T   T   T
  0.1568497140282435  0.4563632455735619  0.3198009200458295   T   T   T
  0.5165537348410935  0.5006932466727395  0.3178492056319067   T   T   T
  0.8284712206399101  0.6090084451522426  0.3218880832972540   T   T   T
  0.1530857480446933  0.6695601371147335  0.3143769122295133   T   T   T
  0.4997418139516178  0.7932715481595926  0.3191094218203364   T   T   T
  0.8341828637863103  0.8459855189422224  0.3203029198696282   T   T   T
  0.1634155248573745  0.9412895669004542  0.3206046212661677   T   T   T
  0.6673756293065708  0.0589103762338310  0.0630356448212735   T   T   T
  0.0008864158040426  0.3933596985916023  0.0627412994095877   T   T   T
  0.3327812377373512  0.7256883430497564  0.0638670977097204   T   T   T
  0.0225308234388783  0.0617373333739198  0.0763060854998454   T   T   T
  0.3108006687417066  0.0577019262790820  0.0762185987864743   T   T   T
  0.3555938530939620  0.3951111803510665  0.0761419195462326   T   T   T
  0.6437717476432175  0.3902066934370369  0.0761431880812365   T   T   T
  0.6887019239304247  0.7278768979580879  0.0757012970541263   T   T   T
  0.9777223369694222  0.7239571417989867  0.0768168033048105   T   T   T
  0.6890191554692536  0.2263204834047179  0.1324856210295557   T   T   T
  0.9780670216511510  0.2261697906251054  0.1321221702433936   T   T   T
  0.0232071921827628  0.5603013983581149  0.1333093314547712   T   T   T
  0.3113360639818101  0.5589987370641791  0.1332947992604247   T   T   T
  0.3550720632973028  0.8932406125830632  0.1319244453650525   T   T   T
  0.6429048694529064  0.8923169821093604  0.1324160149616517   T   T   T
  0.3330967851271504  0.2261401857450483  0.1465810530377825   T   T   T
  0.6669558607588796  0.5589767000997878  0.1461357352572154   T   T   T
  0.9990889801387636  0.8925916358066489  0.1458026668099892   T   T   T
  0.1662912528513744  0.0595060828439241  0.1744088912449834   T   T   T
  0.4998319904266135  0.3927930314499382  0.1741617033057002   T   T   T
  0.8303053039538106  0.7266483665994453  0.1737161620492064   T   T   T
  0.5178956958721191  0.0602730686253520  0.1829476089370026   T   T   T
  0.8143571471527822  0.0587602459461729  0.1827200520406821   T   T   T
  0.1501982797073251  0.3933650082288530  0.1837127415276537   T   T   T
  0.8551548831458284  0.3939502287219099  0.1815299964266139   T   T   T
  0.1858793527425855  0.7259097528148871  0.1845790248952719   T   T   T
  0.4809083743035168  0.7252776499195216  0.1838072507510067   T   T   T
  0.4814754887355220  0.2260837821576734  0.2429112812872314   T   T   T
  0.5207778829383368  0.5586310618107302  0.2423248455204650   T   T   T
  0.1858490811153211  0.2288093278780555  0.2431259208061281   T   T   T
  0.8161456894549238  0.5587668007894010  0.2437821133171746   T   T   T
  0.1490835299655003  0.8910287077874798  0.2424534362391012   T   T   T
  0.8506285895164283  0.8949976486412871  0.2422405755337263   T   T   T
  0.8349694463364898  0.2245660979840166  0.2509286293441866   T   T   T
  0.1697548620558605  0.5588033285509643  0.2545518608963893   T   T   T
  0.4991030318379887  0.8914429199598312  0.2515171395588089   T   T   T
  0.6656293543688135  0.0595754031029717  0.2791847154303955   T   T   T
  0.9950980082043903  0.3937878100750284  0.2781880061132047   T   T   T
  0.3389129073901024  0.7162455017086785  0.2837622915597081   T   T   T
  0.0224607710566272  0.0583695901375630  0.2931912328791528   T   T   T
  0.3106555523463130  0.0598872921267054  0.2928048775218030   T   T   T
  0.3569593745524599  0.4006078734756600  0.2966888054513888   T   T   T
  0.6479171203683874  0.3890516714048739  0.2899959896472682   T   T   T
  0.6865753488053515  0.7255093628172385  0.2942664067148519   T   T   T
  0.9666661207123812  0.7267424543764356  0.2895469775888865   T   T   T
  0.6903100070031428  0.2274010585721695  0.3498335408258147   T   T   T
  0.9773031913755562  0.2224998329233289  0.3492430203756432   T   T   T
  0.0336687444193819  0.5689105833612357  0.3517917183766597   T   T   T
  0.3549912644696042  0.8952400573187194  0.3492496359999807   T   T   T
  0.6436397438080751  0.8917489203488660  0.3496315998631169   T   T   T
  0.3313067867381698  0.2277138782235663  0.3624275898126655   T   T   T
  0.6622982231568157  0.5589698668871745  0.3632857450647642   T   T   T
  0.0028281608714671  0.8872026967822068  0.3614331483261096   T   T   T
 
  0.00000000E+00  0.00000000E+00  0.00000000E+00
  0.00000000E+00  0.00000000E+00  0.00000000E+00
  0.00000000E+00  0.00000000E+00  0.00000000E+00
  0.00000000E+00  0.00000000E+00  0.00000000E+00
  0.00000000E+00  0.00000000E+00  0.00000000E+00
  0.00000000E+00  0.00000000E+00  0.00000000E+00
  0.00000000E+00  0.00000000E+00  0.00000000E+00
  0.00000000E+00  0.00000000E+00  0.00000000E+00
  0.00000000E+00  0.00000000E+00  0.00000000E+00
  0.00000000E+00  0.00000000E+00  0.00000000E+00
  0.00000000E+00  0.00000000E+00  0.00000000E+00
  0.00000000E+00  0.00000000E+00  0.00000000E+00
  0.00000000E+00  0.00000000E+00  0.00000000E+00
  0.00000000E+00  0.00000000E+00  0.00000000E+00
  0.00000000E+00  0.00000000E+00  0.00000000E+00
  0.00000000E+00  0.00000000E+00  0.00000000E+00
  0.00000000E+00  0.00000000E+00  0.00000000E+00
  0.00000000E+00  0.00000000E+00  0.00000000E+00
  0.00000000E+00  0.00000000E+00  0.00000000E+00
  0.00000000E+00  0.00000000E+00  0.00000000E+00
  0.00000000E+00  0.00000000E+00  0.00000000E+00
  0.00000000E+00  0.00000000E+00  0.00000000E+00
  0.00000000E+00  0.00000000E+00  0.00000000E+00
  0.00000000E+00  0.00000000E+00  0.00000000E+00
  0.00000000E+00  0.00000000E+00  0.00000000E+00
  0.00000000E+00  0.00000000E+00  0.00000000E+00
  0.00000000E+00  0.00000000E+00  0.00000000E+00
  0.00000000E+00  0.00000000E+00  0.00000000E+00
  0.00000000E+00  0.00000000E+00  0.00000000E+00
  0.00000000E+00  0.00000000E+00  0.00000000E+00
  0.00000000E+00  0.00000000E+00  0.00000000E+00
  0.00000000E+00  0.00000000E+00  0.00000000E+00
  0.00000000E+00  0.00000000E+00  0.00000000E+00
  0.00000000E+00  0.00000000E+00  0.00000000E+00
  0.00000000E+00  0.00000000E+00  0.00000000E+00
  0.00000000E+00  0.00000000E+00  0.00000000E+00
  0.00000000E+00  0.00000000E+00  0.00000000E+00
  0.00000000E+00  0.00000000E+00  0.00000000E+00
  0.00000000E+00  0.00000000E+00  0.00000000E+00
  0.00000000E+00  0.00000000E+00  0.00000000E+00
  0.00000000E+00  0.00000000E+00  0.00000000E+00
  0.00000000E+00  0.00000000E+00  0.00000000E+00
  0.00000000E+00  0.00000000E+00  0.00000000E+00
  0.00000000E+00  0.00000000E+00  0.00000000E+00
  0.00000000E+00  0.00000000E+00  0.00000000E+00
  0.00000000E+00  0.00000000E+00  0.00000000E+00
  0.00000000E+00  0.00000000E+00  0.00000000E+00
  0.00000000E+00  0.00000000E+00  0.00000000E+00
  0.00000000E+00  0.00000000E+00  0.00000000E+00
  0.00000000E+00  0.00000000E+00  0.00000000E+00
  0.00000000E+00  0.00000000E+00  0.00000000E+00
  0.00000000E+00  0.00000000E+00  0.00000000E+00
  0.00000000E+00  0.00000000E+00  0.00000000E+00
  0.00000000E+00  0.00000000E+00  0.00000000E+00
  0.00000000E+00  0.00000000E+00  0.00000000E+00
  0.00000000E+00  0.00000000E+00  0.00000000E+00
  0.00000000E+00  0.00000000E+00  0.00000000E+00
  0.00000000E+00  0.00000000E+00  0.00000000E+00
  0.00000000E+00  0.00000000E+00  0.00000000E+00
  0.00000000E+00  0.00000000E+00  0.00000000E+00
  0.00000000E+00  0.00000000E+00  0.00000000E+00
  0.00000000E+00  0.00000000E+00  0.00000000E+00
  0.00000000E+00  0.00000000E+00  0.00000000E+00
  0.00000000E+00  0.00000000E+00  0.00000000E+00
  0.00000000E+00  0.00000000E+00  0.00000000E+00
  0.00000000E+00  0.00000000E+00  0.00000000E+00
  0.00000000E+00  0.00000000E+00  0.00000000E+00
  0.00000000E+00  0.00000000E+00  0.00000000E+00
  0.00000000E+00  0.00000000E+00  0.00000000E+00
  0.00000000E+00  0.00000000E+00  0.00000000E+00
  0.00000000E+00  0.00000000E+00  0.00000000E+00
  0.00000000E+00  0.00000000E+00  0.00000000E+00
  0.00000000E+00  0.00000000E+00  0.00000000E+00
  0.00000000E+00  0.00000000E+00  0.00000000E+00
  0.00000000E+00  0.00000000E+00  0.00000000E+00
  0.00000000E+00  0.00000000E+00  0.00000000E+00
  0.00000000E+00  0.00000000E+00  0.00000000E+00
  0.00000000E+00  0.00000000E+00  0.00000000E+00
  0.00000000E+00  0.00000000E+00  0.00000000E+00
  0.00000000E+00  0.00000000E+00  0.00000000E+00
  0.00000000E+00  0.00000000E+00  0.00000000E+00
  0.00000000E+00  0.00000000E+00  0.00000000E+00
  0.00000000E+00  0.00000000E+00  0.00000000E+00
  0.00000000E+00  0.00000000E+00  0.00000000E+00
  0.00000000E+00  0.00000000E+00  0.00000000E+00
  0.00000000E+00  0.00000000E+00  0.00000000E+00
  0.00000000E+00  0.00000000E+00  0.00000000E+00
  0.00000000E+00  0.00000000E+00  0.00000000E+00
  0.00000000E+00  0.00000000E+00  0.00000000E+00
