In O                                    
   1.00000000000000     
     9.6230998390600000    0.0000000000000000    0.0000000000000000
     0.0000000000000000   14.6922204141950008    0.0000000000000000
     0.0000000000000000    0.0000000000000000   26.1117985650409992
   In   O 
    36    53
Selective dynamics
Direct
  0.5027416057304901  0.0113273519822786  0.1049369323687122   T   T   T
  0.8305917242695120  0.1075211110867212  0.1049369323687122   T   T   T
  0.1664331653791929  0.1590987077580538  0.1074825404960520   T   T   T
  0.5006453761866577  0.2929424747529814  0.1074512437437884   T   T   T
  0.8361732451962497  0.3444749257096609  0.1047660347606467   T   T   T
  0.1639523667383037  0.4409076786581997  0.1045888706835717   T   T   T
  0.4995483220250100  0.4925182456967432  0.1074655117818595   T   T   T
  0.8337850079749920  0.6263302173722568  0.1074655117818595   T   T   T
  0.1693809732616921  0.6779407944108010  0.1045888706835717   T   T   T
  0.4971600848037522  0.7743735373593390  0.1047660347606467   T   T   T
  0.8326879538133444  0.8259059883160185  0.1074512437437884   T   T   T
  0.1669001746208029  0.9597497653109468  0.1074825404960520   T   T   T
  0.9995326835555239  0.0011404404457820  0.2160871972436559   T   T   T
  0.3338006464444782  0.1177080226232179  0.2160871972436559   T   T   T
  0.6662674127432104  0.1679048152073886  0.2092077356330481   T   T   T
  0.0004887461419932  0.2838550269306522  0.2089849388238018   T   T   T
  0.3328395335844993  0.3340660897657780  0.2158130716048631   T   T   T
  0.6681085784992598  0.4508139327583062  0.2156442061991343   T   T   T
  0.0012917496642278  0.5007431387217334  0.2089442036333196   T   T   T
  0.3320415803357743  0.6181053243472665  0.2089442036333196   T   T   T
  0.6652247615007361  0.6680345403106945  0.2156442061991343   T   T   T
  0.0004937964155028  0.7847823733032219  0.2158130716048631   T   T   T
  0.3328445838580089  0.8349934361383478  0.2089849388238018   T   T   T
  0.6670659272567854  0.9509436578616121  0.2092077356330481   T   T   T
  0.4997385252482966  0.9930550919433195  0.3179809846932751   T   T   T
  0.8335948047517056  0.1257933711256804  0.3179809846932751   T   T   T
  0.1695933207045629  0.1774310250700256  0.3204165682467724   T   T   T
  0.4962506039932964  0.2739855861718238  0.3210087578786497   T   T   T
  0.8356355337920930  0.3247977138779567  0.3180554428907351   T   T   T
  0.1671812090734202  0.4588859494421807  0.3184774404340882   T   T   T
  0.5005775938237320  0.5103006359984076  0.3185712141083017   T   T   T
  0.8327557361762701  0.6085478270705923  0.3185712141083017   T   T   T
  0.1661521309265756  0.6599625236268201  0.3184774404340882   T   T   T
  0.4976977962079090  0.7940507491910431  0.3180554428907351   T   T   T
  0.8370827260067056  0.8448628768971759  0.3210087578786497   T   T   T
  0.1637400192954329  0.9414174479989752  0.3204165682467724   T   T   T
  0.6666666699999979  0.0594242365339994  0.0636760407818550   T   T   T
 -0.0000494951364902  0.3926836212472705  0.0634806907942728   T   T   T
  0.3333828251364923  0.7261648418207346  0.0634806907942728   T   T   T
  0.0222969000462214  0.0619845502930063  0.0760416147878827   T   T   T
  0.3110364399537744  0.0568639227749925  0.0760416147878827   T   T   T
  0.3559457362544112  0.3953653783216968  0.0760749608806512   T   T   T
  0.6444496707151136  0.3900527795542903  0.0760937135549558   T   T   T
  0.6888836592848885  0.7287956835137148  0.0760937135549558   T   T   T
  0.9773875937455908  0.7234830847463083  0.0760749608806512   T   T   T
  0.6892538036168446  0.2261800694731111  0.1328150721234903   T   T   T
  0.9776696965953540  0.2256815810091135  0.1326468433514277   T   T   T
  0.0226990776836103  0.5597010417816419  0.1326805151479684   T   T   T
  0.3106342623163855  0.5591474312863569  0.1326805151479684   T   T   T
  0.3556636334046481  0.8931668820588845  0.1326468433514277   T   T   T
  0.6440795263831575  0.8926683935948871  0.1328150721234903   T   T   T
  0.3335658301935183  0.2259675382743546  0.1458269817798501   T   T   T
  0.6666666699999979  0.5594242365339994  0.1457493136840508   T   T   T
  0.9997674998064837  0.8928809247936506  0.1458269817798501   T   T   T
  0.1666666699999979  0.0594242365339994  0.1742405245644205   T   T   T
  0.5005827183301913  0.3924622753729508  0.1743922067365732   T   T   T
  0.8327506116698108  0.7263861876950544  0.1743922067365732   T   T   T
  0.5186496035524285  0.0601763203061884  0.1834565809111456   T   T   T
  0.8146837364475673  0.0586721527618104  0.1834565809111456   T   T   T
  0.1483727291510143  0.3918395686460067  0.1830924472431605   T   T   T
  0.8524949193626852  0.3930424134053246  0.1832943372251218   T   T   T
  0.1849606008489878  0.7270088944219983  0.1830924472431605   T   T   T
  0.4808384106373167  0.7258060496626806  0.1832943372251218   T   T   T
  0.4821252099816826  0.2258956871604757  0.2425225787344207   T   T   T
  0.5182552371195992  0.5603398790393609  0.2414447144878769   T   T   T
  0.1852872106932211  0.2267454984213048  0.2421821765656561   T   T   T
  0.8150781028803966  0.5585085940286380  0.2414447144878769   T   T   T
  0.1480461193067810  0.8921029646466931  0.2421821765656561   T   T   T
  0.8512081200183195  0.8929527759075224  0.2425225787344207   T   T   T
  0.8330672596536006  0.2263822690774580  0.2514353279237481   T   T   T
  0.1666666699999979  0.5594242365339994  0.2522414159852720   T   T   T
  0.5002660703464015  0.8924661939905399  0.2514353279237481   T   T   T
  0.6666666699999979  0.0594242365339994  0.2798942252711039   T   T   T
  0.0005534654067761  0.3928219369584586  0.2797504104029189   T   T   T
  0.3327798645932260  0.7260265261095465  0.2797504104029189   T   T   T
  0.0223556084277202  0.0593746295355982  0.2926416690847129   T   T   T
  0.3109777315722756  0.0594738435324007  0.2926416690847129   T   T   T
  0.3566322199820588  0.3931931370978937  0.2923474141853829   T   T   T
  0.6486197627176135  0.3989842258933772  0.2956989235684309   T   T   T
  0.6847135672823886  0.7198642371746278  0.2956989235684309   T   T   T
  0.9767011100179434  0.7256553259701114  0.2923474141853829   T   T   T
  0.6889392955136688  0.2294539820876233  0.3492350923660483   T   T   T
  0.9778583431543542  0.2222685764469630  0.3499017749188705   T   T   T
  0.0204884425289693  0.5615110040383636  0.3505032609033512   T   T   T
  0.3128448974710265  0.5573374690296352  0.3505032609033512   T   T   T
  0.3554749868456480  0.8965798866210353  0.3499017749188705   T   T   T
  0.6443940344863333  0.8893944809803749  0.3492350923660483   T   T   T
  0.3323521714826581  0.2260693451189417  0.3622264325464661   T   T   T
  0.0009811585173440  0.8927791179490562  0.3622264325464661   T   T   T
 
  0.00000000E+00  0.00000000E+00  0.00000000E+00
  0.00000000E+00  0.00000000E+00  0.00000000E+00
  0.00000000E+00  0.00000000E+00  0.00000000E+00
  0.00000000E+00  0.00000000E+00  0.00000000E+00
  0.00000000E+00  0.00000000E+00  0.00000000E+00
  0.00000000E+00  0.00000000E+00  0.00000000E+00
  0.00000000E+00  0.00000000E+00  0.00000000E+00
  0.00000000E+00  0.00000000E+00  0.00000000E+00
  0.00000000E+00  0.00000000E+00  0.00000000E+00
  0.00000000E+00  0.00000000E+00  0.00000000E+00
  0.00000000E+00  0.00000000E+00  0.00000000E+00
  0.00000000E+00  0.00000000E+00  0.00000000E+00
  0.00000000E+00  0.00000000E+00  0.00000000E+00
  0.00000000E+00  0.00000000E+00  0.00000000E+00
  0.00000000E+00  0.00000000E+00  0.00000000E+00
  0.00000000E+00  0.00000000E+00  0.00000000E+00
  0.00000000E+00  0.00000000E+00  0.00000000E+00
  0.00000000E+00  0.00000000E+00  0.00000000E+00
  0.00000000E+00  0.00000000E+00  0.00000000E+00
  0.00000000E+00  0.00000000E+00  0.00000000E+00
  0.00000000E+00  0.00000000E+00  0.00000000E+00
  0.00000000E+00  0.00000000E+00  0.00000000E+00
  0.00000000E+00  0.00000000E+00  0.00000000E+00
  0.00000000E+00  0.00000000E+00  0.00000000E+00
  0.00000000E+00  0.00000000E+00  0.00000000E+00
  0.00000000E+00  0.00000000E+00  0.00000000E+00
  0.00000000E+00  0.00000000E+00  0.00000000E+00
  0.00000000E+00  0.00000000E+00  0.00000000E+00
  0.00000000E+00  0.00000000E+00  0.00000000E+00
  0.00000000E+00  0.00000000E+00  0.00000000E+00
  0.00000000E+00  0.00000000E+00  0.00000000E+00
  0.00000000E+00  0.00000000E+00  0.00000000E+00
  0.00000000E+00  0.00000000E+00  0.00000000E+00
  0.00000000E+00  0.00000000E+00  0.00000000E+00
  0.00000000E+00  0.00000000E+00  0.00000000E+00
  0.00000000E+00  0.00000000E+00  0.00000000E+00
  0.00000000E+00  0.00000000E+00  0.00000000E+00
  0.00000000E+00  0.00000000E+00  0.00000000E+00
  0.00000000E+00  0.00000000E+00  0.00000000E+00
  0.00000000E+00  0.00000000E+00  0.00000000E+00
  0.00000000E+00  0.00000000E+00  0.00000000E+00
  0.00000000E+00  0.00000000E+00  0.00000000E+00
  0.00000000E+00  0.00000000E+00  0.00000000E+00
  0.00000000E+00  0.00000000E+00  0.00000000E+00
  0.00000000E+00  0.00000000E+00  0.00000000E+00
  0.00000000E+00  0.00000000E+00  0.00000000E+00
  0.00000000E+00  0.00000000E+00  0.00000000E+00
  0.00000000E+00  0.00000000E+00  0.00000000E+00
  0.00000000E+00  0.00000000E+00  0.00000000E+00
  0.00000000E+00  0.00000000E+00  0.00000000E+00
  0.00000000E+00  0.00000000E+00  0.00000000E+00
  0.00000000E+00  0.00000000E+00  0.00000000E+00
  0.00000000E+00  0.00000000E+00  0.00000000E+00
  0.00000000E+00  0.00000000E+00  0.00000000E+00
  0.00000000E+00  0.00000000E+00  0.00000000E+00
  0.00000000E+00  0.00000000E+00  0.00000000E+00
  0.00000000E+00  0.00000000E+00  0.00000000E+00
  0.00000000E+00  0.00000000E+00  0.00000000E+00
  0.00000000E+00  0.00000000E+00  0.00000000E+00
  0.00000000E+00  0.00000000E+00  0.00000000E+00
  0.00000000E+00  0.00000000E+00  0.00000000E+00
  0.00000000E+00  0.00000000E+00  0.00000000E+00
  0.00000000E+00  0.00000000E+00  0.00000000E+00
  0.00000000E+00  0.00000000E+00  0.00000000E+00
  0.00000000E+00  0.00000000E+00  0.00000000E+00
  0.00000000E+00  0.00000000E+00  0.00000000E+00
  0.00000000E+00  0.00000000E+00  0.00000000E+00
  0.00000000E+00  0.00000000E+00  0.00000000E+00
  0.00000000E+00  0.00000000E+00  0.00000000E+00
  0.00000000E+00  0.00000000E+00  0.00000000E+00
  0.00000000E+00  0.00000000E+00  0.00000000E+00
  0.00000000E+00  0.00000000E+00  0.00000000E+00
  0.00000000E+00  0.00000000E+00  0.00000000E+00
  0.00000000E+00  0.00000000E+00  0.00000000E+00
  0.00000000E+00  0.00000000E+00  0.00000000E+00
  0.00000000E+00  0.00000000E+00  0.00000000E+00
  0.00000000E+00  0.00000000E+00  0.00000000E+00
  0.00000000E+00  0.00000000E+00  0.00000000E+00
  0.00000000E+00  0.00000000E+00  0.00000000E+00
  0.00000000E+00  0.00000000E+00  0.00000000E+00
  0.00000000E+00  0.00000000E+00  0.00000000E+00
  0.00000000E+00  0.00000000E+00  0.00000000E+00
  0.00000000E+00  0.00000000E+00  0.00000000E+00
  0.00000000E+00  0.00000000E+00  0.00000000E+00
  0.00000000E+00  0.00000000E+00  0.00000000E+00
  0.00000000E+00  0.00000000E+00  0.00000000E+00
  0.00000000E+00  0.00000000E+00  0.00000000E+00
  0.00000000E+00  0.00000000E+00  0.00000000E+00
  0.00000000E+00  0.00000000E+00  0.00000000E+00
