In O                                    
   1.00000000000000     
     9.6230998390600000    0.0000000000000000    0.0000000000000000
     0.0000000000000000   14.6922204141950008    0.0000000000000000
     0.0000000000000000    0.0000000000000000   26.1117985650409992
   In   O 
    36    53
Selective dynamics
Direct
  0.5036195724798096  0.0112209983535804  0.1034401539525194   T   T   T
  0.8304944493463514  0.1073608762652239  0.1048642027364798   T   T   T
  0.1660290665363357  0.1593915092618285  0.1071073510329865   T   T   T
  0.5002575004999237  0.2929201324736914  0.1076584284040850   T   T   T
  0.8364278934520131  0.3444210309697779  0.1054387657961195   T   T   T
  0.1638545624365431  0.4399096439000925  0.1046955306208686   T   T   T
  0.4980073851892983  0.4927168243804335  0.1066920307438512   T   T   T
  0.8332031002228808  0.6267290636481126  0.1074033773500215   T   T   T
  0.1694791169178859  0.6783121554083275  0.1043370852619102   T   T   T
  0.4970101972495589  0.7743215364610624  0.1044640526291540   T   T   T
  0.8334729927036117  0.8261488992441099  0.1075754361567226   T   T   T
  0.1664175470107192  0.9597008971633627  0.1076018402531137   T   T   T
  0.0009615044322250  0.0024485987101310  0.2171494397237571   T   T   T
  0.3379459691203605  0.1174483338881701  0.2134803129075985   T   T   T
  0.6680041450699599  0.1687935819089810  0.2096399190218538   T   T   T
  0.0018298202375977  0.2828642315414366  0.2097965157950938   T   T   T
  0.3332463189876395  0.3350154077409350  0.2170578517115593   T   T   T
  0.6647766582007848  0.4539478511392369  0.2137056721012924   T   T   T
  0.0001267148345708  0.5022587973379945  0.2080201238818889   T   T   T
  0.3321220562953587  0.6178936733949155  0.2088610492133171   T   T   T
  0.6656827334863048  0.6689447254915422  0.2162605335877298   T   T   T
  0.0001383307070789  0.7852285293109584  0.2160792384646686   T   T   T
  0.3330999333126886  0.8348256540460891  0.2088661870119775   T   T   T
  0.6674963209570300  0.9514329055051919  0.2085763708946450   T   T   T
  0.5007756665277485  0.9901976279027062  0.3173149994607014   T   T   T
  0.8235871029351256  0.1231780633300626  0.3196918447409527   T   T   T
  0.1831490369345983  0.1673612555793147  0.3178689872807162   T   T   T
  0.4950428526353067  0.2758678603348276  0.3218273294018503   T   T   T
  0.8197994484078390  0.3362193297022980  0.3144307886430433   T   T   T
  0.1665840712683929  0.4598213460312165  0.3191842960979857   T   T   T
  0.5010138990825540  0.5130143488424054  0.3202537793141131   T   T   T
  0.8303457501025414  0.6079501589050754  0.3206534007249683   T   T   T
  0.1656885941957581  0.6593016120296349  0.3176366428799767   T   T   T
  0.4999267805983809  0.7915156580049708  0.3176675650833397   T   T   T
  0.8358183986248569  0.8440703643422799  0.3209263580814959   T   T   T
  0.1649113485284469  0.9368734799379380  0.3216557779965767   T   T   T
  0.6678465065275757  0.0599286229677428  0.0627400933353827   T   T   T
  0.9992739792793598  0.3925276816747172  0.0637791384356309   T   T   T
  0.3339478792815999  0.7255079488661742  0.0630724999029153   T   T   T
  0.0222674990162784  0.0619034936723603  0.0760835598862961   T   T   T
  0.3105940371385747  0.0570671359330141  0.0760935589914566   T   T   T
  0.3552680385649585  0.3943905068033678  0.0756589597925552   T   T   T
  0.6443747794198682  0.3906167306150382  0.0768275138813636   T   T   T
  0.6892855914497217  0.7284765498266099  0.0762896447267653   T   T   T
  0.9773950559965210  0.7242138543901856  0.0762282703108861   T   T   T
  0.6898661286386392  0.2270178961170239  0.1333140760042860   T   T   T
  0.9780657182547718  0.2257475842651339  0.1332818086067723   T   T   T
  0.0217190150790848  0.5597403363282815  0.1320166430244104   T   T   T
  0.3095888760531562  0.5588443218043956  0.1324193910760917   T   T   T
  0.3557235767954885  0.8931012924956281  0.1323941301886488   T   T   T
  0.6448442001973532  0.8928818655601937  0.1322371860396039   T   T   T
  0.3336073814727032  0.2256224945812243  0.1462053858760697   T   T   T
  0.6658605685334072  0.5591793748649466  0.1458016878221501   T   T   T
 -0.0001967539304748  0.8929582121306128  0.1465738771335500   T   T   T
  0.1664976234632641  0.0593151633755777  0.1741276726589907   T   T   T
  0.4969654742903122  0.3932695753409119  0.1737272648634291   T   T   T
  0.8330014979080674  0.7261757503475165  0.1744453300548165   T   T   T
  0.5217914066411738  0.0606113236741673  0.1815338993979054   T   T   T
  0.8168883477823514  0.0601575604546562  0.1837735954124381   T   T   T
  0.1475342829428562  0.3919005910689157  0.1837914309680924   T   T   T
  0.8524933399122036  0.3926138668261202  0.1845782747263233   T   T   T
  0.1845353970057963  0.7269120997583669  0.1829314224131938   T   T   T
  0.4810049820489556  0.7254415718514683  0.1826977862503443   T   T   T
  0.4826287675138035  0.2252905367436613  0.2437709060167258   T   T   T
  0.5172873574448815  0.5617441449029551  0.2421770925894735   T   T   T
  0.1872118591934931  0.2251624507157706  0.2423180609024850   T   T   T
  0.8157173830258629  0.5577308591447295  0.2425095384183640   T   T   T
  0.1482393617258940  0.8927169681220293  0.2428593196197557   T   T   T
  0.8525269484685063  0.8954086003956550  0.2431258944086211   T   T   T
  0.8363573076794240  0.2255790223785303  0.2545189225542132   T   T   T
  0.1658209250501929  0.5580948822902213  0.2515444550746351   T   T   T
  0.5014701796352926  0.8913139943312507  0.2509143249090293   T   T   T
  0.6617150423336078  0.0604431293738922  0.2782068470022791   T   T   T
  0.0055306504780633  0.3830271242186552  0.2837222036595737   T   T   T
  0.3323111138373366  0.7261831314959067  0.2791525998802231   T   T   T
  0.0236177819260224  0.0671923010447859  0.2966385514187206   T   T   T
  0.3146814579494407  0.0557055387843255  0.2900828981509967   T   T   T
  0.3533115660897171  0.3922557693472217  0.2941424951878802   T   T   T
  0.6334655534960134  0.3935259072871099  0.2895716882822025   T   T   T
  0.6891347179965254  0.7250316506879698  0.2932243376153986   T   T   T
  0.9775072127693016  0.7265981274687969  0.2928531196558560   T   T   T
  0.7002805738287877  0.2355797313511760  0.3517981798059400   T   T   T
  0.0218521946484567  0.5618675804437694  0.3493386458752842   T   T   T
  0.3104090470264046  0.5583644577869969  0.3497062626125994   T   T   T
  0.3568914741702830  0.8940637541069760  0.3498433072766753   T   T   T
  0.6439304357307278  0.8890870237742685  0.3492616440496460   T   T   T
  0.3288421976143909  0.2258063061959975  0.3632277425753076   T   T   T
  0.6694777469506051  0.5541723254293136  0.3614792997399988   T   T   T
  0.9978494957613226  0.8943944056398064  0.3624262670307860   T   T   T
 
  0.00000000E+00  0.00000000E+00  0.00000000E+00
  0.00000000E+00  0.00000000E+00  0.00000000E+00
  0.00000000E+00  0.00000000E+00  0.00000000E+00
  0.00000000E+00  0.00000000E+00  0.00000000E+00
  0.00000000E+00  0.00000000E+00  0.00000000E+00
  0.00000000E+00  0.00000000E+00  0.00000000E+00
  0.00000000E+00  0.00000000E+00  0.00000000E+00
  0.00000000E+00  0.00000000E+00  0.00000000E+00
  0.00000000E+00  0.00000000E+00  0.00000000E+00
  0.00000000E+00  0.00000000E+00  0.00000000E+00
  0.00000000E+00  0.00000000E+00  0.00000000E+00
  0.00000000E+00  0.00000000E+00  0.00000000E+00
  0.00000000E+00  0.00000000E+00  0.00000000E+00
  0.00000000E+00  0.00000000E+00  0.00000000E+00
  0.00000000E+00  0.00000000E+00  0.00000000E+00
  0.00000000E+00  0.00000000E+00  0.00000000E+00
  0.00000000E+00  0.00000000E+00  0.00000000E+00
  0.00000000E+00  0.00000000E+00  0.00000000E+00
  0.00000000E+00  0.00000000E+00  0.00000000E+00
  0.00000000E+00  0.00000000E+00  0.00000000E+00
  0.00000000E+00  0.00000000E+00  0.00000000E+00
  0.00000000E+00  0.00000000E+00  0.00000000E+00
  0.00000000E+00  0.00000000E+00  0.00000000E+00
  0.00000000E+00  0.00000000E+00  0.00000000E+00
  0.00000000E+00  0.00000000E+00  0.00000000E+00
  0.00000000E+00  0.00000000E+00  0.00000000E+00
  0.00000000E+00  0.00000000E+00  0.00000000E+00
  0.00000000E+00  0.00000000E+00  0.00000000E+00
  0.00000000E+00  0.00000000E+00  0.00000000E+00
  0.00000000E+00  0.00000000E+00  0.00000000E+00
  0.00000000E+00  0.00000000E+00  0.00000000E+00
  0.00000000E+00  0.00000000E+00  0.00000000E+00
  0.00000000E+00  0.00000000E+00  0.00000000E+00
  0.00000000E+00  0.00000000E+00  0.00000000E+00
  0.00000000E+00  0.00000000E+00  0.00000000E+00
  0.00000000E+00  0.00000000E+00  0.00000000E+00
  0.00000000E+00  0.00000000E+00  0.00000000E+00
  0.00000000E+00  0.00000000E+00  0.00000000E+00
  0.00000000E+00  0.00000000E+00  0.00000000E+00
  0.00000000E+00  0.00000000E+00  0.00000000E+00
  0.00000000E+00  0.00000000E+00  0.00000000E+00
  0.00000000E+00  0.00000000E+00  0.00000000E+00
  0.00000000E+00  0.00000000E+00  0.00000000E+00
  0.00000000E+00  0.00000000E+00  0.00000000E+00
  0.00000000E+00  0.00000000E+00  0.00000000E+00
  0.00000000E+00  0.00000000E+00  0.00000000E+00
  0.00000000E+00  0.00000000E+00  0.00000000E+00
  0.00000000E+00  0.00000000E+00  0.00000000E+00
  0.00000000E+00  0.00000000E+00  0.00000000E+00
  0.00000000E+00  0.00000000E+00  0.00000000E+00
  0.00000000E+00  0.00000000E+00  0.00000000E+00
  0.00000000E+00  0.00000000E+00  0.00000000E+00
  0.00000000E+00  0.00000000E+00  0.00000000E+00
  0.00000000E+00  0.00000000E+00  0.00000000E+00
  0.00000000E+00  0.00000000E+00  0.00000000E+00
  0.00000000E+00  0.00000000E+00  0.00000000E+00
  0.00000000E+00  0.00000000E+00  0.00000000E+00
  0.00000000E+00  0.00000000E+00  0.00000000E+00
  0.00000000E+00  0.00000000E+00  0.00000000E+00
  0.00000000E+00  0.00000000E+00  0.00000000E+00
  0.00000000E+00  0.00000000E+00  0.00000000E+00
  0.00000000E+00  0.00000000E+00  0.00000000E+00
  0.00000000E+00  0.00000000E+00  0.00000000E+00
  0.00000000E+00  0.00000000E+00  0.00000000E+00
  0.00000000E+00  0.00000000E+00  0.00000000E+00
  0.00000000E+00  0.00000000E+00  0.00000000E+00
  0.00000000E+00  0.00000000E+00  0.00000000E+00
  0.00000000E+00  0.00000000E+00  0.00000000E+00
  0.00000000E+00  0.00000000E+00  0.00000000E+00
  0.00000000E+00  0.00000000E+00  0.00000000E+00
  0.00000000E+00  0.00000000E+00  0.00000000E+00
  0.00000000E+00  0.00000000E+00  0.00000000E+00
  0.00000000E+00  0.00000000E+00  0.00000000E+00
  0.00000000E+00  0.00000000E+00  0.00000000E+00
  0.00000000E+00  0.00000000E+00  0.00000000E+00
  0.00000000E+00  0.00000000E+00  0.00000000E+00
  0.00000000E+00  0.00000000E+00  0.00000000E+00
  0.00000000E+00  0.00000000E+00  0.00000000E+00
  0.00000000E+00  0.00000000E+00  0.00000000E+00
  0.00000000E+00  0.00000000E+00  0.00000000E+00
  0.00000000E+00  0.00000000E+00  0.00000000E+00
  0.00000000E+00  0.00000000E+00  0.00000000E+00
  0.00000000E+00  0.00000000E+00  0.00000000E+00
  0.00000000E+00  0.00000000E+00  0.00000000E+00
  0.00000000E+00  0.00000000E+00  0.00000000E+00
  0.00000000E+00  0.00000000E+00  0.00000000E+00
  0.00000000E+00  0.00000000E+00  0.00000000E+00
  0.00000000E+00  0.00000000E+00  0.00000000E+00
  0.00000000E+00  0.00000000E+00  0.00000000E+00
