In O                                    
   1.00000000000000     
     9.6230998390600000    0.0000000000000000    0.0000000000000000
     0.0000000000000000   14.6922204141950008    0.0000000000000000
     0.0000000000000000    0.0000000000000000   26.1117985650409992
   In   O 
    36    53
Selective dynamics
Direct
  0.5027354499966187  0.0112029277515194  0.1046904747833478   T   T   T
  0.8305331435126277  0.1077316119296796  0.1048631668530436   T   T   T
  0.1659919428779305  0.1592259014488441  0.1073311904461240   T   T   T
  0.5003009971814819  0.2929801746413241  0.1073714836314578   T   T   T
  0.8360600698442788  0.3445792518228288  0.1050121259898064   T   T   T
  0.1639399301557211  0.4409358812461761  0.1050121259898064   T   T   T
  0.4996990028185181  0.4925349584276737  0.1073714836314578   T   T   T
  0.8340080571220696  0.6262892316201536  0.1073311904461240   T   T   T
  0.1694668564873723  0.6777835211393183  0.1048631668530436   T   T   T
  0.4972645500033813  0.7743122053174782  0.1046904747833478   T   T   T
  0.8329005950889480  0.8259412297611103  0.1074162557100123   T   T   T
  0.1670994049110520  0.9595739033078946  0.1074162557100123   T   T   T
  0.9987569664334968  0.0014986572351834  0.2156083597516034   T   T   T
  0.3338310391277076  0.1181031541131737  0.2157666160296354   T   T   T
  0.6663974594374279  0.1683560201954446  0.2090408203528649   T   T   T
  0.0003124331698886  0.2841683096007994  0.2091958483585211   T   T   T
  0.3329913507210284  0.3346005758546919  0.2160603721290203   T   T   T
  0.6670086492789717  0.4509145572143129  0.2160603721290203   T   T   T
  0.9996875668301114  0.5013468234681984  0.2091958483585211   T   T   T
  0.3336025405625720  0.6171591128735532  0.2090408203528649   T   T   T
  0.6661689608722925  0.6674119789558242  0.2157666160296354   T   T   T
  0.0012430335665032  0.7840164758338143  0.2156083597516034   T   T   T
  0.3346816231403641  0.8341995539218677  0.2089905582495204   T   T   T
  0.6653183768596360  0.9513155791471372  0.2089905582495204   T   T   T
  0.4996970898494627  0.9934906747046179  0.3185352483410053   T   T   T
  0.8311761954218603  0.1273948928511417  0.3181259074513390   T   T   T
  0.1703939116401658  0.1783265821364440  0.3209047341401652   T   T   T
  0.4971532976617126  0.2747841810783238  0.3203400418129252   T   T   T
  0.8330475612619134  0.3265206062050970  0.3181043398881308   T   T   T
  0.1669524387380865  0.4589945268639078  0.3181043398881308   T   T   T
  0.5028467023382873  0.5107309519906741  0.3203400418129252   T   T   T
  0.8296060883598342  0.6071885509325537  0.3209047341401652   T   T   T
  0.1688238045781397  0.6581202402178561  0.3181259074513390   T   T   T
  0.5003029101505373  0.7920244583643798  0.3185352483410053   T   T   T
  0.8337533440396208  0.8432246864478603  0.3184729729140428   T   T   T
  0.1662466559603793  0.9422904466211446  0.3184729729140428   T   T   T
  0.6666362807532280  0.0594910891324704  0.0636681873747572   T   T   T
  0.0000000000000000  0.3927575665340015  0.0638857094029801   T   T   T
  0.3333637192467719  0.7260240439355328  0.0636681873747572   T   T   T
  0.0222361010962492  0.0621268620548829  0.0760680250110717   T   T   T
  0.3106890737822592  0.0566510380601537  0.0760341114266509   T   T   T
  0.3557443856457873  0.3954459821082887  0.0760324471081702   T   T   T
  0.6442556143542127  0.3900691509597143  0.0760324471081702   T   T   T
  0.6893109262177408  0.7288640950078493  0.0760341114266509   T   T   T
  0.9777638989037508  0.7233882710131200  0.0760680250110717   T   T   T
  0.6891102092799116  0.2264711722567344  0.1327335625409694   T   T   T
  0.9773470701934608  0.2259272610705491  0.1328155649627736   T   T   T
  0.0226529298065392  0.5595878719974469  0.1328155649627736   T   T   T
  0.3108897907200885  0.5590439608112614  0.1327335625409694   T   T   T
  0.3561283199183957  0.8930475287557298  0.1327679416037945   T   T   T
  0.6438716800816043  0.8924676043122732  0.1327679416037945   T   T   T
  0.3331240723175162  0.2261217648042377  0.1455861576080484   T   T   T
  0.6668759276824837  0.5593933682637583  0.1455861576080484   T   T   T
  0.0000000000000000  0.8927575665340015  0.1455286935508978   T   T   T
  0.1662101323654116  0.0597092075322059  0.1743143666585968   T   T   T
  0.5000000000000000  0.3927575665340015  0.1741314329759920   T   T   T
  0.8337898676345885  0.7258059255357973  0.1743143666585968   T   T   T
  0.5185450192748556  0.0602733119438732  0.1832117768728788   T   T   T
  0.8141163944038819  0.0591349297168617  0.1834052507000280   T   T   T
  0.1478854763098611  0.3920607595986111  0.1835615234614361   T   T   T
  0.8521145236901388  0.3934543734693919  0.1835615234614361   T   T   T
  0.1858836055961181  0.7263802033511413  0.1834052507000280   T   T   T
  0.4814549807251444  0.7252418211241299  0.1832117768728788   T   T   T
  0.4812638191983645  0.2255424456708729  0.2420521500260817   T   T   T
  0.5187361808016354  0.5599726873971230  0.2420521500260817   T   T   T
  0.1847645831548126  0.2263080437308441  0.2423687418640202   T   T   T
  0.8152354168451874  0.5592070893371517  0.2423687418640202   T   T   T
  0.1482131235166354  0.8919287390012360  0.2413520703557391   T   T   T
  0.8517868764833645  0.8935863940667670  0.2413520703557391   T   T   T
  0.8335981775499316  0.2258377619543609  0.2514769562709718   T   T   T
  0.1664018224500684  0.5596773711136349  0.2514769562709718   T   T   T
  0.5000000000000000  0.8927575665340015  0.2522960707192117   T   T   T
  0.6662281555325051  0.0593876314104568  0.2799667373699751   T   T   T
  0.0000000000000000  0.3927575665340015  0.2801723324376099   T   T   T
  0.3337718444674949  0.7261275016575462  0.2799667373699751   T   T   T
  0.0185665994933536  0.0535117601991528  0.2955634284997823   T   T   T
  0.3103292249620424  0.0592178959605899  0.2922908794023225   T   T   T
  0.3558560832173580  0.3926395865739275  0.2926084698463725   T   T   T
  0.6441439167826420  0.3928755464940755  0.2926084698463725   T   T   T
  0.6896707750379576  0.7262972371074131  0.2922908794023225   T   T   T
  0.9814334005066464  0.7320033728688502  0.2955634284997823   T   T   T
  0.6888573680150786  0.2300130343178081  0.3499102568998198   T   T   T
  0.9777351602493231  0.2226967641559943  0.3492991107365886   T   T   T
  0.0222648397506771  0.5628183689120017  0.3492991107365886   T   T   T
  0.3111426319849214  0.5555020987501879  0.3499102568998198   T   T   T
  0.3537929745910761  0.8951603332295011  0.3505346484718866   T   T   T
  0.6462070254089238  0.8903547998385020  0.3505346484718866   T   T   T
  0.3343616991185792  0.2260980438456936  0.3621093941433489   T   T   T
  0.6656383008814207  0.5594170892223024  0.3621093941433489   T   T   T
 
  0.00000000E+00  0.00000000E+00  0.00000000E+00
  0.00000000E+00  0.00000000E+00  0.00000000E+00
  0.00000000E+00  0.00000000E+00  0.00000000E+00
  0.00000000E+00  0.00000000E+00  0.00000000E+00
  0.00000000E+00  0.00000000E+00  0.00000000E+00
  0.00000000E+00  0.00000000E+00  0.00000000E+00
  0.00000000E+00  0.00000000E+00  0.00000000E+00
  0.00000000E+00  0.00000000E+00  0.00000000E+00
  0.00000000E+00  0.00000000E+00  0.00000000E+00
  0.00000000E+00  0.00000000E+00  0.00000000E+00
  0.00000000E+00  0.00000000E+00  0.00000000E+00
  0.00000000E+00  0.00000000E+00  0.00000000E+00
  0.00000000E+00  0.00000000E+00  0.00000000E+00
  0.00000000E+00  0.00000000E+00  0.00000000E+00
  0.00000000E+00  0.00000000E+00  0.00000000E+00
  0.00000000E+00  0.00000000E+00  0.00000000E+00
  0.00000000E+00  0.00000000E+00  0.00000000E+00
  0.00000000E+00  0.00000000E+00  0.00000000E+00
  0.00000000E+00  0.00000000E+00  0.00000000E+00
  0.00000000E+00  0.00000000E+00  0.00000000E+00
  0.00000000E+00  0.00000000E+00  0.00000000E+00
  0.00000000E+00  0.00000000E+00  0.00000000E+00
  0.00000000E+00  0.00000000E+00  0.00000000E+00
  0.00000000E+00  0.00000000E+00  0.00000000E+00
  0.00000000E+00  0.00000000E+00  0.00000000E+00
  0.00000000E+00  0.00000000E+00  0.00000000E+00
  0.00000000E+00  0.00000000E+00  0.00000000E+00
  0.00000000E+00  0.00000000E+00  0.00000000E+00
  0.00000000E+00  0.00000000E+00  0.00000000E+00
  0.00000000E+00  0.00000000E+00  0.00000000E+00
  0.00000000E+00  0.00000000E+00  0.00000000E+00
  0.00000000E+00  0.00000000E+00  0.00000000E+00
  0.00000000E+00  0.00000000E+00  0.00000000E+00
  0.00000000E+00  0.00000000E+00  0.00000000E+00
  0.00000000E+00  0.00000000E+00  0.00000000E+00
  0.00000000E+00  0.00000000E+00  0.00000000E+00
  0.00000000E+00  0.00000000E+00  0.00000000E+00
  0.00000000E+00  0.00000000E+00  0.00000000E+00
  0.00000000E+00  0.00000000E+00  0.00000000E+00
  0.00000000E+00  0.00000000E+00  0.00000000E+00
  0.00000000E+00  0.00000000E+00  0.00000000E+00
  0.00000000E+00  0.00000000E+00  0.00000000E+00
  0.00000000E+00  0.00000000E+00  0.00000000E+00
  0.00000000E+00  0.00000000E+00  0.00000000E+00
  0.00000000E+00  0.00000000E+00  0.00000000E+00
  0.00000000E+00  0.00000000E+00  0.00000000E+00
  0.00000000E+00  0.00000000E+00  0.00000000E+00
  0.00000000E+00  0.00000000E+00  0.00000000E+00
  0.00000000E+00  0.00000000E+00  0.00000000E+00
  0.00000000E+00  0.00000000E+00  0.00000000E+00
  0.00000000E+00  0.00000000E+00  0.00000000E+00
  0.00000000E+00  0.00000000E+00  0.00000000E+00
  0.00000000E+00  0.00000000E+00  0.00000000E+00
  0.00000000E+00  0.00000000E+00  0.00000000E+00
  0.00000000E+00  0.00000000E+00  0.00000000E+00
  0.00000000E+00  0.00000000E+00  0.00000000E+00
  0.00000000E+00  0.00000000E+00  0.00000000E+00
  0.00000000E+00  0.00000000E+00  0.00000000E+00
  0.00000000E+00  0.00000000E+00  0.00000000E+00
  0.00000000E+00  0.00000000E+00  0.00000000E+00
  0.00000000E+00  0.00000000E+00  0.00000000E+00
  0.00000000E+00  0.00000000E+00  0.00000000E+00
  0.00000000E+00  0.00000000E+00  0.00000000E+00
  0.00000000E+00  0.00000000E+00  0.00000000E+00
  0.00000000E+00  0.00000000E+00  0.00000000E+00
  0.00000000E+00  0.00000000E+00  0.00000000E+00
  0.00000000E+00  0.00000000E+00  0.00000000E+00
  0.00000000E+00  0.00000000E+00  0.00000000E+00
  0.00000000E+00  0.00000000E+00  0.00000000E+00
  0.00000000E+00  0.00000000E+00  0.00000000E+00
  0.00000000E+00  0.00000000E+00  0.00000000E+00
  0.00000000E+00  0.00000000E+00  0.00000000E+00
  0.00000000E+00  0.00000000E+00  0.00000000E+00
  0.00000000E+00  0.00000000E+00  0.00000000E+00
  0.00000000E+00  0.00000000E+00  0.00000000E+00
  0.00000000E+00  0.00000000E+00  0.00000000E+00
  0.00000000E+00  0.00000000E+00  0.00000000E+00
  0.00000000E+00  0.00000000E+00  0.00000000E+00
  0.00000000E+00  0.00000000E+00  0.00000000E+00
  0.00000000E+00  0.00000000E+00  0.00000000E+00
  0.00000000E+00  0.00000000E+00  0.00000000E+00
  0.00000000E+00  0.00000000E+00  0.00000000E+00
  0.00000000E+00  0.00000000E+00  0.00000000E+00
  0.00000000E+00  0.00000000E+00  0.00000000E+00
  0.00000000E+00  0.00000000E+00  0.00000000E+00
  0.00000000E+00  0.00000000E+00  0.00000000E+00
  0.00000000E+00  0.00000000E+00  0.00000000E+00
  0.00000000E+00  0.00000000E+00  0.00000000E+00
  0.00000000E+00  0.00000000E+00  0.00000000E+00
