C In O                                  
   1.00000000000000     
    14.4942117030500004    0.0000000000000000    0.0000000000000000
    -7.2471058515250002   12.5523555426710001    0.0000000000000000
     0.0000000000000000    0.0000000000000000   26.8344742987830003
   C    In   O 
     1    48    73
Selective dynamics
Direct
  0.7597963404614900  0.5147185972080910  0.4481682011965786   T   T   T
  0.2830589651214446  0.0164362247444161  0.1052494776125353   T   T   T
  0.2440659185062770  0.2320942998175312  0.0999086604834084   T   T   T
  0.7381127335077344  0.2196436468655028  0.1052898741521623   T   T   T
  0.9930311610135960  0.2587914193291452  0.1002364662840595   T   T   T
  0.2712121728740999  0.5107483426706352  0.1015970184901639   T   T   T
  0.4869680908667262  0.7649788716209996  0.1057791583215181   T   T   T
  0.9983542875500027  0.0088310251960561  0.1092248523974154   T   T   T
  0.0150195654880662  0.5047632315320738  0.1105910023349708   T   T   T
  0.4947334467987470  0.4889850704762040  0.1108905677907133   T   T   T
  0.5027164354126598  0.0003352939424453  0.0987942814181243   T   T   T
  0.5160499494604758  0.2386088035400566  0.1093827973521232   T   T   T
  0.7227399541618662  0.4868485978855066  0.1194707313019277   T   T   T
  0.0161610140971354  0.7342175700059000  0.1201405556643538   T   T   T
  0.2643419293508592  0.7750741451408935  0.1101969924638824   T   T   T
  0.7680688217910261  0.7796878697663870  0.1200964126480635   T   T   T
  0.7279052183003175  0.9872041665820928  0.1112581263487723   T   T   T
  0.1568637505524561  0.0925693165281817  0.2097366536908395   T   T   T
  0.9416922458798777  0.3436716858644321  0.2092069247870147   T   T   T
  0.4103582567846060  0.5635061505617264  0.2116363426005617   T   T   T
  0.9021344160890138  0.5572292885848630  0.2121729951663923   T   T   T
  0.6596186860669980  0.6004375312459100  0.2128102481531685   T   T   T
  0.9479062758984058  0.8466389981114002  0.2108669134008948   T   T   T
  0.6676945174097677  0.3328162661341253  0.2193591063642046   T   T   T
  0.1709538626648748  0.8345402303306266  0.2198252680895645   T   T   T
  0.6696218919654028  0.8340986504003939  0.2208466274229893   T   T   T
  0.1684965490167175  0.3337908735205968  0.2189698271981487   T   T   T
  0.6791699396281370  0.0683538428260056  0.2255744594403880   T   T   T
  0.4352454374461847  0.1094339516513196  0.2249786578526608   T   T   T
  0.9287779663569645  0.1048140617012099  0.2274945007408192   T   T   T
  0.3935840761066602  0.3193646810359864  0.2253934820740181   T   T   T
  0.1812651961872378  0.5747603714652493  0.2280482792112551   T   T   T
  0.3939156570257282  0.8237927025889340  0.2245734250204814   T   T   T
  0.6135235617763357  0.1770784633699918  0.3227429647217346   T   T   T
  0.8353757224161494  0.4161724774419585  0.3200993947164294   T   T   T
  0.6094989008351246  0.6803988733190925  0.3292910844650570   T   T   T
  0.0770918729534824  0.8965036448175463  0.3274746179142562   T   T   T
  0.5682282726887825  0.8872798642363899  0.3212532445188251   T   T   T
  0.3241796600347652  0.9330778523461226  0.3209427293023819   T   T   T
  0.3204586666521417  0.1593702284172175  0.3275439971485691   T   T   T
  0.8426254266825431  0.1741558772873759  0.3288926726050811   T   T   T
  0.3397754985459205  0.6610613631846346  0.3291590763305615   T   T   T
  0.8437116505605031  0.6813182548046086  0.3299583557659136   T   T   T
  0.0678250146216267  0.1570109978293137  0.3374247620363491   T   T   T
  0.3402225118638185  0.4062471673443244  0.3370361757436231   T   T   T
  0.0958942591544892  0.4340464186431169  0.3375401126538936   T   T   T
  0.5844530601478984  0.4400542479554795  0.3248219370512527   T   T   T
  0.0554724612975166  0.6512658137598013  0.3330830697995165   T   T   T
  0.8519544131973710  0.9053129199936982  0.3345102218323880   T   T   T
  0.5885012126519593  0.1613995398359029  0.0685561365226546   T   T   T
  0.3412051049678584  0.9246708126967097  0.0689855382311833   T   T   T
  0.5793521822880165  0.9150752756483141  0.0695288306569547   T   T   T
  0.8317158514594478  0.1474120183085354  0.0828298928507647   T   T   T
  0.3553037747622725  0.1822408209262516  0.0821046752791146   T   T   T
  0.3215004330135154  0.6713196388360558  0.0824989120443601   T   T   T
  0.5682817699496752  0.4019450732066150  0.0881095466528745   T   T   T
  0.1009294166505213  0.6650335826638417  0.0880565477124076   T   T   T
  0.8371843271821643  0.9334971817300625  0.0879013332491103   T   T   T
  0.0765776885276916  0.1739102623136822  0.0844866845491926   T   T   T
  0.3297419570478785  0.4016254533296564  0.0861474022501641   T   T   T
  0.1023905272776509  0.4268177422724091  0.0861497540427589   T   T   T
  0.8909181724719433  0.5616293711136594  0.1225108327717239   T   T   T
  0.6748812153164641  0.6114372295198928  0.1223501302887988   T   T   T
  0.9414752866151843  0.8278087280085672  0.1221377799513209   T   T   T
  0.1615703876503579  0.0561160839676236  0.1279960693924354   T   T   T
  0.8991925653475390  0.3411853861958310  0.1286420877057181   T   T   T
  0.4469774981330920  0.6044183828389038  0.1303379607555146   T   T   T
  0.6881963073604069  0.3247662629998413  0.1395193727251964   T   T   T
  0.6409163288915948  0.8140277731122441  0.1408415576330199   T   T   T
  0.1779911869486372  0.8617148153595460  0.1398673795754178   T   T   T
  0.4300533617425399  0.0789867877621807  0.1476093393106201   T   T   T
  0.6528592280954659  0.0744513425068681  0.1484731748324651   T   T   T
  0.4252350947350829  0.8502609184546747  0.1474849052335989   T   T   T
  0.0133810572184531  0.2506342326602755  0.1800819690314356   T   T   T
  0.2493619211240458  0.2591785777279300  0.1797357312222175   T   T   T
  0.2430065489111919  0.4905643496390553  0.1812407998752376   T   T   T
  0.9833164358439201  0.0081575881965311  0.1898562829147813   T   T   T
  0.4963943749392298  0.4743908078203886  0.1918062716373607   T   T   T
  0.0275955963609908  0.5196772018313672  0.1916699078386697   T   T   T
  0.5051754279028217  0.2749474810904679  0.1986283459043438   T   T   T
  0.2290057570911576  0.7285409476160926  0.1973895692880490   T   T   T
  0.7742239446387780  0.9983028200104122  0.1978293951664156   T   T   T
  0.7327134647512678  0.5049221888974369  0.2011376793304152   T   T   T
  0.9962758632203156  0.7249949382143719  0.2017253066792127   T   T   T
  0.7774877559811365  0.7686420344064182  0.2011263334329872   T   T   T
  0.6056727096782790  0.1645252899984322  0.2421106621849287   T   T   T
  0.5613359151877524  0.8993192703670378  0.2405496972046207   T   T   T
  0.3443424848694077  0.9417953184684226  0.2404926645744834   T   T   T
  0.8331108107700717  0.3902298355690097  0.2400358825810429   T   T   T
  0.5658821063962033  0.6670354503811214  0.2446210875062340   T   T   T
  0.1107328844793620  0.9394893593618653  0.2415895337017644   T   T   T
  0.3080671176282119  0.1441913888007260  0.2468155943695899   T   T   T
  0.8421713643544450  0.1936446421231281  0.2484486618305191   T   T   T
  0.3571471377100213  0.6621631672235174  0.2486866329930940   T   T   T
  0.0956620900196128  0.1777083799490018  0.2578469592183347   T   T   T
  0.0860259843737255  0.4069465269451721  0.2580648510429540   T   T   T
  0.3234427485250094  0.4156454905730292  0.2577552857265749   T   T   T
  0.6894830842307941  0.5900797651539074  0.2931526580549383   T   T   T
  0.8993648820258004  0.5808584824083817  0.2935960670631790   T   T   T
  0.9163928140636343  0.8268619293647446  0.2888448477543749   T   T   T
  0.6623573840990107  0.3549914568574686  0.3073948858066391   T   T   T
  0.1598257242928521  0.8058276419430931  0.3001803747440703   T   T   T
  0.6967634803339020  0.8529449697996586  0.3014850663211815   T   T   T
  0.8931907092409753  0.0630122017425603  0.3092426238422732   T   T   T
  0.4314871650940086  0.3216067684839855  0.3059602091910662   T   T   T
  0.1747766737717389  0.6098100280247956  0.3099464095517160   T   T   T
  0.6633283185254323  0.0551381895241550  0.3206500312882132   T   T   T
  0.4468776510814201  0.1079116650847270  0.3205195683959287   T   T   T
  0.3966332943370854  0.8386239216052984  0.3217551267528871   T   T   T
  0.2360077165078154  0.2393493945691057  0.3537951366309677   T   T   T
  0.0087565616668855  0.2655851023073492  0.3535346183438137   T   T   T
  0.2624806989570812  0.4949668199492178  0.3541693036146121   T   T   T
  0.2369787497334202  0.0008484432469575  0.3524607132503743   T   T   T
  0.7708179070090824  0.2630045727150329  0.3527300135643042   T   T   T
  0.5002140196272753  0.7315297904506700  0.3527156309531629   T   T   T
  0.9842991794686448  0.4851761451867517  0.3574899411635145   T   T   T
  0.5055397749805731  0.5157866003824362  0.3559845244763681   T   T   T
  0.0173980406894919  0.9961604383432107  0.3579636123418289   T   T   T
  0.7500521417338148  0.5060612600263026  0.4043151426133602   T   T   T
  0.7618016636238101  0.7492414328994033  0.3689550498081229   T   T   T
  0.9926650052342244  0.7412086204963338  0.3680064626067752   T   T   T
  0.7682598796438362  0.5216526900356920  0.4914495244417388   T   T   T
 
  0.00000000E+00  0.00000000E+00  0.00000000E+00
  0.00000000E+00  0.00000000E+00  0.00000000E+00
  0.00000000E+00  0.00000000E+00  0.00000000E+00
  0.00000000E+00  0.00000000E+00  0.00000000E+00
  0.00000000E+00  0.00000000E+00  0.00000000E+00
  0.00000000E+00  0.00000000E+00  0.00000000E+00
  0.00000000E+00  0.00000000E+00  0.00000000E+00
  0.00000000E+00  0.00000000E+00  0.00000000E+00
  0.00000000E+00  0.00000000E+00  0.00000000E+00
  0.00000000E+00  0.00000000E+00  0.00000000E+00
  0.00000000E+00  0.00000000E+00  0.00000000E+00
  0.00000000E+00  0.00000000E+00  0.00000000E+00
  0.00000000E+00  0.00000000E+00  0.00000000E+00
  0.00000000E+00  0.00000000E+00  0.00000000E+00
  0.00000000E+00  0.00000000E+00  0.00000000E+00
  0.00000000E+00  0.00000000E+00  0.00000000E+00
  0.00000000E+00  0.00000000E+00  0.00000000E+00
  0.00000000E+00  0.00000000E+00  0.00000000E+00
  0.00000000E+00  0.00000000E+00  0.00000000E+00
  0.00000000E+00  0.00000000E+00  0.00000000E+00
  0.00000000E+00  0.00000000E+00  0.00000000E+00
  0.00000000E+00  0.00000000E+00  0.00000000E+00
  0.00000000E+00  0.00000000E+00  0.00000000E+00
  0.00000000E+00  0.00000000E+00  0.00000000E+00
  0.00000000E+00  0.00000000E+00  0.00000000E+00
  0.00000000E+00  0.00000000E+00  0.00000000E+00
  0.00000000E+00  0.00000000E+00  0.00000000E+00
  0.00000000E+00  0.00000000E+00  0.00000000E+00
  0.00000000E+00  0.00000000E+00  0.00000000E+00
  0.00000000E+00  0.00000000E+00  0.00000000E+00
  0.00000000E+00  0.00000000E+00  0.00000000E+00
  0.00000000E+00  0.00000000E+00  0.00000000E+00
  0.00000000E+00  0.00000000E+00  0.00000000E+00
  0.00000000E+00  0.00000000E+00  0.00000000E+00
  0.00000000E+00  0.00000000E+00  0.00000000E+00
  0.00000000E+00  0.00000000E+00  0.00000000E+00
  0.00000000E+00  0.00000000E+00  0.00000000E+00
  0.00000000E+00  0.00000000E+00  0.00000000E+00
  0.00000000E+00  0.00000000E+00  0.00000000E+00
  0.00000000E+00  0.00000000E+00  0.00000000E+00
  0.00000000E+00  0.00000000E+00  0.00000000E+00
  0.00000000E+00  0.00000000E+00  0.00000000E+00
  0.00000000E+00  0.00000000E+00  0.00000000E+00
  0.00000000E+00  0.00000000E+00  0.00000000E+00
  0.00000000E+00  0.00000000E+00  0.00000000E+00
  0.00000000E+00  0.00000000E+00  0.00000000E+00
  0.00000000E+00  0.00000000E+00  0.00000000E+00
  0.00000000E+00  0.00000000E+00  0.00000000E+00
  0.00000000E+00  0.00000000E+00  0.00000000E+00
  0.00000000E+00  0.00000000E+00  0.00000000E+00
  0.00000000E+00  0.00000000E+00  0.00000000E+00
  0.00000000E+00  0.00000000E+00  0.00000000E+00
  0.00000000E+00  0.00000000E+00  0.00000000E+00
  0.00000000E+00  0.00000000E+00  0.00000000E+00
  0.00000000E+00  0.00000000E+00  0.00000000E+00
  0.00000000E+00  0.00000000E+00  0.00000000E+00
  0.00000000E+00  0.00000000E+00  0.00000000E+00
  0.00000000E+00  0.00000000E+00  0.00000000E+00
  0.00000000E+00  0.00000000E+00  0.00000000E+00
  0.00000000E+00  0.00000000E+00  0.00000000E+00
  0.00000000E+00  0.00000000E+00  0.00000000E+00
  0.00000000E+00  0.00000000E+00  0.00000000E+00
  0.00000000E+00  0.00000000E+00  0.00000000E+00
  0.00000000E+00  0.00000000E+00  0.00000000E+00
  0.00000000E+00  0.00000000E+00  0.00000000E+00
  0.00000000E+00  0.00000000E+00  0.00000000E+00
  0.00000000E+00  0.00000000E+00  0.00000000E+00
  0.00000000E+00  0.00000000E+00  0.00000000E+00
  0.00000000E+00  0.00000000E+00  0.00000000E+00
  0.00000000E+00  0.00000000E+00  0.00000000E+00
  0.00000000E+00  0.00000000E+00  0.00000000E+00
  0.00000000E+00  0.00000000E+00  0.00000000E+00
  0.00000000E+00  0.00000000E+00  0.00000000E+00
  0.00000000E+00  0.00000000E+00  0.00000000E+00
  0.00000000E+00  0.00000000E+00  0.00000000E+00
  0.00000000E+00  0.00000000E+00  0.00000000E+00
  0.00000000E+00  0.00000000E+00  0.00000000E+00
  0.00000000E+00  0.00000000E+00  0.00000000E+00
  0.00000000E+00  0.00000000E+00  0.00000000E+00
  0.00000000E+00  0.00000000E+00  0.00000000E+00
  0.00000000E+00  0.00000000E+00  0.00000000E+00
  0.00000000E+00  0.00000000E+00  0.00000000E+00
  0.00000000E+00  0.00000000E+00  0.00000000E+00
  0.00000000E+00  0.00000000E+00  0.00000000E+00
  0.00000000E+00  0.00000000E+00  0.00000000E+00
  0.00000000E+00  0.00000000E+00  0.00000000E+00
  0.00000000E+00  0.00000000E+00  0.00000000E+00
  0.00000000E+00  0.00000000E+00  0.00000000E+00
  0.00000000E+00  0.00000000E+00  0.00000000E+00
  0.00000000E+00  0.00000000E+00  0.00000000E+00
  0.00000000E+00  0.00000000E+00  0.00000000E+00
  0.00000000E+00  0.00000000E+00  0.00000000E+00
  0.00000000E+00  0.00000000E+00  0.00000000E+00
  0.00000000E+00  0.00000000E+00  0.00000000E+00
  0.00000000E+00  0.00000000E+00  0.00000000E+00
  0.00000000E+00  0.00000000E+00  0.00000000E+00
  0.00000000E+00  0.00000000E+00  0.00000000E+00
  0.00000000E+00  0.00000000E+00  0.00000000E+00
  0.00000000E+00  0.00000000E+00  0.00000000E+00
  0.00000000E+00  0.00000000E+00  0.00000000E+00
  0.00000000E+00  0.00000000E+00  0.00000000E+00
  0.00000000E+00  0.00000000E+00  0.00000000E+00
  0.00000000E+00  0.00000000E+00  0.00000000E+00
  0.00000000E+00  0.00000000E+00  0.00000000E+00
  0.00000000E+00  0.00000000E+00  0.00000000E+00
  0.00000000E+00  0.00000000E+00  0.00000000E+00
  0.00000000E+00  0.00000000E+00  0.00000000E+00
  0.00000000E+00  0.00000000E+00  0.00000000E+00
  0.00000000E+00  0.00000000E+00  0.00000000E+00
  0.00000000E+00  0.00000000E+00  0.00000000E+00
  0.00000000E+00  0.00000000E+00  0.00000000E+00
  0.00000000E+00  0.00000000E+00  0.00000000E+00
  0.00000000E+00  0.00000000E+00  0.00000000E+00
  0.00000000E+00  0.00000000E+00  0.00000000E+00
  0.00000000E+00  0.00000000E+00  0.00000000E+00
  0.00000000E+00  0.00000000E+00  0.00000000E+00
  0.00000000E+00  0.00000000E+00  0.00000000E+00
  0.00000000E+00  0.00000000E+00  0.00000000E+00
  0.00000000E+00  0.00000000E+00  0.00000000E+00
  0.00000000E+00  0.00000000E+00  0.00000000E+00
  0.00000000E+00  0.00000000E+00  0.00000000E+00
  0.00000000E+00  0.00000000E+00  0.00000000E+00
