In O                                    
   1.00000000000000     
    14.4942117030500004    0.0000000000000000    0.0000000000000000
    -7.2471058515250002   12.5523555426710001    0.0000000000000000
     0.0000000000000000    0.0000000000000000   26.8344742987830003
   In   O 
    48    71
Selective dynamics
Direct
  0.2830051744457668  0.0162037131712174  0.1056965389950631   T   T   T
  0.2442486885079642  0.2319826216047119  0.1025895558139600   T   T   T
  0.7382699198668757  0.2201346376684883  0.1062237786288396   T   T   T
  0.9928896699250205  0.2588515648489439  0.1026794245218930   T   T   T
  0.2708064776529403  0.5100778885362292  0.1023567078851920   T   T   T
  0.4868663841161410  0.7649276032895149  0.1056837913599082   T   T   T
  0.9989247761510768  0.0076618213277202  0.1118868613673692   T   T   T
  0.0135911463612228  0.5043476554657763  0.1119170104308337   T   T   T
  0.4956794537120723  0.4890225797298087  0.1117625064897650   T   T   T
  0.5029280838756967  0.0003441159683409  0.0987396574341305   T   T   T
  0.5163166120620246  0.2393381484382061  0.1101268543170754   T   T   T
  0.7236572401476251  0.4876129754516675  0.1202078090183603   T   T   T
  0.0154522415392889  0.7339001637981951  0.1202853194563797   T   T   T
  0.2640232985252262  0.7747825946023214  0.1108217015904673   T   T   T
  0.7692396399300272  0.7796906541879224  0.1203369058369042   T   T   T
  0.7282538073986895  0.9871924389451541  0.1108256713565686   T   T   T
  0.1582979656873547  0.0923510268097751  0.2123326185437188   T   T   T
  0.9393992973975439  0.3456400316323184  0.2122002941461372   T   T   T
  0.4113799219863231  0.5645906441912031  0.2111815931676992   T   T   T
  0.9028077860625433  0.5576519652630531  0.2150804458884965   T   T   T
  0.6600082248226919  0.6002922183170349  0.2148007524888647   T   T   T
  0.9459323198858439  0.8436908342980081  0.2148105756447409   T   T   T
  0.6686427097708192  0.3343116167506738  0.2203733018393694   T   T   T
  0.1695139123980799  0.8333411570937217  0.2199632495786990   T   T   T
  0.6696020525615930  0.8340486117345506  0.2199089047149676   T   T   T
  0.1694349979883462  0.3345119629500338  0.2205097182395742   T   T   T
  0.6790218723389571  0.0673540589593427  0.2250401105595006   T   T   T
  0.4368741732298750  0.1084444975894029  0.2239488462396221   T   T   T
  0.9280031132477680  0.1047377706894821  0.2281926535725108   T   T   T
  0.3967853130104557  0.3211330621870704  0.2287771121916651   T   T   T
  0.1810781884568106  0.5749074678517589  0.2288964748110982   T   T   T
  0.3937475245637135  0.8235077644139533  0.2247578440550258   T   T   T
  0.6156347636845749  0.1796682862512623  0.3203427488985357   T   T   T
  0.8228751117001577  0.4289298160592369  0.3293352754584872   T   T   T
  0.6141602989291240  0.6837464031891864  0.3286431145342469   T   T   T
  0.0745075064012078  0.8915828228808738  0.3290941109064766   T   T   T
  0.5706405689932770  0.8882634304444736  0.3205286810872829   T   T   T
  0.3217330375945918  0.9283374883180597  0.3204786186077474   T   T   T
  0.3346663235107111  0.1551053120513486  0.3286015847557430   T   T   T
  0.8402756169257906  0.1778372274128216  0.3289626494832145   T   T   T
  0.3407104437436474  0.6636210882742918  0.3292039063721824   T   T   T
  0.8367300144083979  0.6671472027042128  0.3408674302012989   T   T   T
  0.0568851089466293  0.1525310782409038  0.3377845822394636   T   T   T
  0.3546762944743461  0.4253300897894363  0.3379511059923818   T   T   T
  0.0932788733809774  0.4357203751427493  0.3384175202429041   T   T   T
  0.6016692287644374  0.4485530032610131  0.3354482291776177   T   T   T
  0.0552563704115696  0.6507156034864946  0.3347724717211424   T   T   T
  0.8518039907811966  0.9017452342163580  0.3346033281576725   T   T   T
  0.5888478920163194  0.1621516439972651  0.0689998051432833   T   T   T
  0.3410256027549792  0.9241832035611720  0.0692500181781426   T   T   T
  0.5790540325726393  0.9148360972393010  0.0691258895959783   T   T   T
  0.8325662287021210  0.1484503769113516  0.0833472001302160   T   T   T
  0.3548368938345137  0.1822729298316133  0.0830846900464125   T   T   T
  0.3208794312695030  0.6705729209445160  0.0831177711419504   T   T   T
  0.5690114833634016  0.4023874964979831  0.0884173552341332   T   T   T
  0.1009240101256561  0.6645438044677577  0.0887795743423426   T   T   T
  0.8388068256729558  0.9345827614247689  0.0888486107879637   T   T   T
  0.0764881386626252  0.1735493572525243  0.0875499760644092   T   T   T
  0.3295538654661759  0.4007937348047296  0.0876664059423998   T   T   T
  0.1018005241051161  0.4266470560846796  0.0875625536295282   T   T   T
  0.8914067006048804  0.5614604998554271  0.1215362232617847   T   T   T
  0.6752451120506636  0.6116619942161312  0.1218731220524758   T   T   T
  0.9418936392064792  0.8283285758133609  0.1219294852976923   T   T   T
  0.1627108663027536  0.0565006534763000  0.1304689076635011   T   T   T
  0.8987385857495891  0.3406473739113064  0.1307080149772359   T   T   T
  0.4470972934026800  0.6041850351067733  0.1299269713942471   T   T   T
  0.6878294506136934  0.3247641379843361  0.1402199771617767   T   T   T
  0.6414834961205450  0.8144070073619992  0.1399378988664902   T   T   T
  0.1780499292718122  0.8617070849619642  0.1399855798774473   T   T   T
  0.4304286078030516  0.0784668155251319  0.1471030469964227   T   T   T
  0.6527845534419744  0.0731286008114680  0.1478798134967662   T   T   T
  0.4253669473599579  0.8499375708156700  0.1476775047408366   T   T   T
  0.0135858680511148  0.2514949888550060  0.1824774664351057   T   T   T
  0.2509169228974354  0.2592552976677851  0.1825775138202875   T   T   T
  0.2437177365705399  0.4899348058250658  0.1821617212468409   T   T   T
  0.9839305480032099  0.0073809605341626  0.1927192420777964   T   T   T
  0.4967149439395516  0.4742621800508539  0.1924599813926742   T   T   T
  0.0277582628781527  0.5200946101326681  0.1925831700432204   T   T   T
  0.5039859273703874  0.2746360465024579  0.1986819849688506   T   T   T
  0.2288068141612997  0.7281947884308951  0.1975269213611855   T   T   T
  0.7747201382289971  0.9984588446515545  0.1973997990357882   T   T   T
  0.7345027439025527  0.5068031235462078  0.2008880107016141   T   T   T
  0.9964456259609168  0.7256830587200862  0.2009984485299470   T   T   T
  0.7778751092405388  0.7692718936389898  0.2010596569481361   T   T   T
  0.6045001599382196  0.1606684148249937  0.2398103752745621   T   T   T
  0.5614718167464624  0.8991952934158953  0.2399710464827184   T   T   T
  0.3431592601798895  0.9412978002947003  0.2399066377260260   T   T   T
  0.8323773897350517  0.3925244887046228  0.2438484196191395   T   T   T
  0.5646923321225545  0.6696758424161150  0.2428162526789895   T   T   T
  0.1110547411553068  0.9391134086936398  0.2432274336496027   T   T   T
  0.3128266231992213  0.1469168740401055  0.2489452144430006   T   T   T
  0.8411030403324077  0.1926688059826541  0.2485344694570231   T   T   T
  0.3563935526355895  0.6616493662537557  0.2486769462705907   T   T   T
  0.0992383170428003  0.1797485804627035  0.2605582682302807   T   T   T
  0.0872947072489627  0.4077060306852139  0.2591224670747960   T   T   T
  0.3271511802627247  0.4170527053110223  0.2591809345765660   T   T   T
  0.6863743289779155  0.5940323097376526  0.2922054732274431   T   T   T
  0.9091771842509951  0.5897079543166988  0.2924333528863963   T   T   T
  0.9144840122071582  0.8186249473100562  0.2923974312306993   T   T   T
  0.6427698183839029  0.3402051975669588  0.3006456555373559   T   T   T
  0.1603876665812274  0.8048739467157999  0.3002376493314753   T   T   T
  0.6985106565410177  0.8542020006255342  0.3001936586905478   T   T   T
  0.8905126148081566  0.0625182792050378  0.3099753951214094   T   T   T
  0.4225722873739081  0.3219138793556209  0.3192584984029860   T   T   T
  0.1761214331603266  0.6108681992957941  0.3106723819982402   T   T   T
  0.6641101335073966  0.0560528440547381  0.3198437071789210   T   T   T
  0.4485643429440616  0.1004617384351472  0.3204755149961038   T   T   T
  0.3981721965749918  0.8385621385235694  0.3200229261254579   T   T   T
  0.0060972080038684  0.2664346275571174  0.3543354903430253   T   T   T
  0.2623222298599352  0.4967487986651654  0.3551858771231365   T   T   T
  0.2373457373857456  0.9996781240473419  0.3531696583527598   T   T   T
  0.7689537296769619  0.2668397576253549  0.3519659868844131   T   T   T
  0.5015130267595080  0.7330824105399529  0.3517551025375944   T   T   T
  0.9831846608922367  0.4853933295500433  0.3578780305195132   T   T   T
  0.5132904585308782  0.5249299336653898  0.3578252593401128   T   T   T
  0.0184689317038372  0.9966355094173642  0.3583181161574217   T   T   T
  0.7515620709925954  0.5056312761747810  0.3712092497841891   T   T   T
  0.7614190601414873  0.7528817494281510  0.3712373102980522   T   T   T
  0.9978310693299403  0.7431731262116681  0.3710863708927035   T   T   T
 
  0.00000000E+00  0.00000000E+00  0.00000000E+00
  0.00000000E+00  0.00000000E+00  0.00000000E+00
  0.00000000E+00  0.00000000E+00  0.00000000E+00
  0.00000000E+00  0.00000000E+00  0.00000000E+00
  0.00000000E+00  0.00000000E+00  0.00000000E+00
  0.00000000E+00  0.00000000E+00  0.00000000E+00
  0.00000000E+00  0.00000000E+00  0.00000000E+00
  0.00000000E+00  0.00000000E+00  0.00000000E+00
  0.00000000E+00  0.00000000E+00  0.00000000E+00
  0.00000000E+00  0.00000000E+00  0.00000000E+00
  0.00000000E+00  0.00000000E+00  0.00000000E+00
  0.00000000E+00  0.00000000E+00  0.00000000E+00
  0.00000000E+00  0.00000000E+00  0.00000000E+00
  0.00000000E+00  0.00000000E+00  0.00000000E+00
  0.00000000E+00  0.00000000E+00  0.00000000E+00
  0.00000000E+00  0.00000000E+00  0.00000000E+00
  0.00000000E+00  0.00000000E+00  0.00000000E+00
  0.00000000E+00  0.00000000E+00  0.00000000E+00
  0.00000000E+00  0.00000000E+00  0.00000000E+00
  0.00000000E+00  0.00000000E+00  0.00000000E+00
  0.00000000E+00  0.00000000E+00  0.00000000E+00
  0.00000000E+00  0.00000000E+00  0.00000000E+00
  0.00000000E+00  0.00000000E+00  0.00000000E+00
  0.00000000E+00  0.00000000E+00  0.00000000E+00
  0.00000000E+00  0.00000000E+00  0.00000000E+00
  0.00000000E+00  0.00000000E+00  0.00000000E+00
  0.00000000E+00  0.00000000E+00  0.00000000E+00
  0.00000000E+00  0.00000000E+00  0.00000000E+00
  0.00000000E+00  0.00000000E+00  0.00000000E+00
  0.00000000E+00  0.00000000E+00  0.00000000E+00
  0.00000000E+00  0.00000000E+00  0.00000000E+00
  0.00000000E+00  0.00000000E+00  0.00000000E+00
  0.00000000E+00  0.00000000E+00  0.00000000E+00
  0.00000000E+00  0.00000000E+00  0.00000000E+00
  0.00000000E+00  0.00000000E+00  0.00000000E+00
  0.00000000E+00  0.00000000E+00  0.00000000E+00
  0.00000000E+00  0.00000000E+00  0.00000000E+00
  0.00000000E+00  0.00000000E+00  0.00000000E+00
  0.00000000E+00  0.00000000E+00  0.00000000E+00
  0.00000000E+00  0.00000000E+00  0.00000000E+00
  0.00000000E+00  0.00000000E+00  0.00000000E+00
  0.00000000E+00  0.00000000E+00  0.00000000E+00
  0.00000000E+00  0.00000000E+00  0.00000000E+00
  0.00000000E+00  0.00000000E+00  0.00000000E+00
  0.00000000E+00  0.00000000E+00  0.00000000E+00
  0.00000000E+00  0.00000000E+00  0.00000000E+00
  0.00000000E+00  0.00000000E+00  0.00000000E+00
  0.00000000E+00  0.00000000E+00  0.00000000E+00
  0.00000000E+00  0.00000000E+00  0.00000000E+00
  0.00000000E+00  0.00000000E+00  0.00000000E+00
  0.00000000E+00  0.00000000E+00  0.00000000E+00
  0.00000000E+00  0.00000000E+00  0.00000000E+00
  0.00000000E+00  0.00000000E+00  0.00000000E+00
  0.00000000E+00  0.00000000E+00  0.00000000E+00
  0.00000000E+00  0.00000000E+00  0.00000000E+00
  0.00000000E+00  0.00000000E+00  0.00000000E+00
  0.00000000E+00  0.00000000E+00  0.00000000E+00
  0.00000000E+00  0.00000000E+00  0.00000000E+00
  0.00000000E+00  0.00000000E+00  0.00000000E+00
  0.00000000E+00  0.00000000E+00  0.00000000E+00
  0.00000000E+00  0.00000000E+00  0.00000000E+00
  0.00000000E+00  0.00000000E+00  0.00000000E+00
  0.00000000E+00  0.00000000E+00  0.00000000E+00
  0.00000000E+00  0.00000000E+00  0.00000000E+00
  0.00000000E+00  0.00000000E+00  0.00000000E+00
  0.00000000E+00  0.00000000E+00  0.00000000E+00
  0.00000000E+00  0.00000000E+00  0.00000000E+00
  0.00000000E+00  0.00000000E+00  0.00000000E+00
  0.00000000E+00  0.00000000E+00  0.00000000E+00
  0.00000000E+00  0.00000000E+00  0.00000000E+00
  0.00000000E+00  0.00000000E+00  0.00000000E+00
  0.00000000E+00  0.00000000E+00  0.00000000E+00
  0.00000000E+00  0.00000000E+00  0.00000000E+00
  0.00000000E+00  0.00000000E+00  0.00000000E+00
  0.00000000E+00  0.00000000E+00  0.00000000E+00
  0.00000000E+00  0.00000000E+00  0.00000000E+00
  0.00000000E+00  0.00000000E+00  0.00000000E+00
  0.00000000E+00  0.00000000E+00  0.00000000E+00
  0.00000000E+00  0.00000000E+00  0.00000000E+00
  0.00000000E+00  0.00000000E+00  0.00000000E+00
  0.00000000E+00  0.00000000E+00  0.00000000E+00
  0.00000000E+00  0.00000000E+00  0.00000000E+00
  0.00000000E+00  0.00000000E+00  0.00000000E+00
  0.00000000E+00  0.00000000E+00  0.00000000E+00
  0.00000000E+00  0.00000000E+00  0.00000000E+00
  0.00000000E+00  0.00000000E+00  0.00000000E+00
  0.00000000E+00  0.00000000E+00  0.00000000E+00
  0.00000000E+00  0.00000000E+00  0.00000000E+00
  0.00000000E+00  0.00000000E+00  0.00000000E+00
  0.00000000E+00  0.00000000E+00  0.00000000E+00
  0.00000000E+00  0.00000000E+00  0.00000000E+00
  0.00000000E+00  0.00000000E+00  0.00000000E+00
  0.00000000E+00  0.00000000E+00  0.00000000E+00
  0.00000000E+00  0.00000000E+00  0.00000000E+00
  0.00000000E+00  0.00000000E+00  0.00000000E+00
  0.00000000E+00  0.00000000E+00  0.00000000E+00
  0.00000000E+00  0.00000000E+00  0.00000000E+00
  0.00000000E+00  0.00000000E+00  0.00000000E+00
  0.00000000E+00  0.00000000E+00  0.00000000E+00
  0.00000000E+00  0.00000000E+00  0.00000000E+00
  0.00000000E+00  0.00000000E+00  0.00000000E+00
  0.00000000E+00  0.00000000E+00  0.00000000E+00
  0.00000000E+00  0.00000000E+00  0.00000000E+00
  0.00000000E+00  0.00000000E+00  0.00000000E+00
  0.00000000E+00  0.00000000E+00  0.00000000E+00
  0.00000000E+00  0.00000000E+00  0.00000000E+00
  0.00000000E+00  0.00000000E+00  0.00000000E+00
  0.00000000E+00  0.00000000E+00  0.00000000E+00
  0.00000000E+00  0.00000000E+00  0.00000000E+00
  0.00000000E+00  0.00000000E+00  0.00000000E+00
  0.00000000E+00  0.00000000E+00  0.00000000E+00
  0.00000000E+00  0.00000000E+00  0.00000000E+00
  0.00000000E+00  0.00000000E+00  0.00000000E+00
  0.00000000E+00  0.00000000E+00  0.00000000E+00
  0.00000000E+00  0.00000000E+00  0.00000000E+00
  0.00000000E+00  0.00000000E+00  0.00000000E+00
  0.00000000E+00  0.00000000E+00  0.00000000E+00
  0.00000000E+00  0.00000000E+00  0.00000000E+00
  0.00000000E+00  0.00000000E+00  0.00000000E+00
