In O                                    
   1.00000000000000     
    14.4942117030500004    0.0000000000000000    0.0000000000000000
    -7.2471058515250002   12.5523555426710001    0.0000000000000000
     0.0000000000000000    0.0000000000000000   26.8344742987830003
   In   O 
    48    71
Selective dynamics
Direct
  0.2794115132482844  0.0147507220966503  0.1049052299924824   T   T   T
  0.2414119964052404  0.2310567520271718  0.1014364064997295   T   T   T
  0.7345165578847457  0.2190500161080990  0.1042761582301708   T   T   T
  0.9893742485088453  0.2575204294359992  0.1018930246684207   T   T   T
  0.2687266727222450  0.5091359580130614  0.1012152519537750   T   T   T
  0.4837273185026234  0.7639899194360567  0.1067466771252370   T   T   T
  0.9956723080097163  0.0067290226643166  0.1116415065345109   T   T   T
  0.0097211709729095  0.5023644048628881  0.1101954411247803   T   T   T
  0.4927327366708525  0.4893145648081259  0.1122249684876593   T   T   T
  0.4990117045071614  0.9991531820439903  0.0987933328549104   T   T   T
  0.5120625418438252  0.2385680983471374  0.1085733200475616   T   T   T
  0.7203776544604494  0.4880657515874560  0.1205856816803319   T   T   T
  0.0123456794287833  0.7326391921373911  0.1213025509420049   T   T   T
  0.2611978234813250  0.7735811057129851  0.1102505354019527   T   T   T
  0.7661594522768311  0.7796498662791933  0.1211607202895237   T   T   T
  0.7251554787850836  0.9863823401385545  0.1103054306104099   T   T   T
  0.1553191373536507  0.0925834854725167  0.2113283031721025   T   T   T
  0.9355554503708632  0.3432555689059527  0.2108716620852320   T   T   T
  0.4071631017016770  0.5625970480305753  0.2131627887858443   T   T   T
  0.9015562703102802  0.5562950222373075  0.2143976671242314   T   T   T
  0.6570233739500893  0.6009245914816077  0.2150041768075468   T   T   T
  0.9423963204184318  0.8431625289899998  0.2147993857065984   T   T   T
  0.6629205292487441  0.3309137419909547  0.2176845647832408   T   T   T
  0.1683132787638044  0.8360904724077045  0.2198598743181392   T   T   T
  0.6660690811844319  0.8344178890636442  0.2208946961906122   T   T   T
  0.1672308932011148  0.3321241628769656  0.2193203373072734   T   T   T
  0.6756043825253926  0.0674224247811992  0.2237578297822225   T   T   T
  0.4319376838248559  0.1088782627106468  0.2235234484614779   T   T   T
  0.9252349828531194  0.1037374879215136  0.2286049700831683   T   T   T
  0.3956845475967228  0.3210787067401881  0.2278257603747562   T   T   T
  0.1781318032713273  0.5707818038408021  0.2244523392767590   T   T   T
  0.3893100132016727  0.8222257715811523  0.2267984020999378   T   T   T
  0.6120874451995206  0.1785797000873188  0.3205667436318436   T   T   T
  0.8065079728295785  0.4235385803192955  0.3228291981087779   T   T   T
  0.6078420392991148  0.6818838457953689  0.3301327262753802   T   T   T
  0.0738107725754702  0.8983843597428489  0.3285574263205149   T   T   T
  0.5675855190699437  0.8898076501641512  0.3218995500063357   T   T   T
  0.3244290629038460  0.9376238841107352  0.3211371416749529   T   T   T
  0.3238591364534003  0.1633633926996012  0.3289498844987406   T   T   T
  0.8392876173057999  0.1769859318017666  0.3287407951827248   T   T   T
  0.3367918647953232  0.6621211932849107  0.3336333626616863   T   T   T
  0.8332422793689318  0.6693191265545835  0.3420623409871197   T   T   T
  0.0663596801535888  0.1560413005450769  0.3381646229539328   T   T   T
  0.3487063162001860  0.4072322053551787  0.3376398233641069   T   T   T
  0.1094092260011195  0.4275100990062413  0.3384080104115199   T   T   T
  0.5977880096587995  0.4491711215440617  0.3334200551694551   T   T   T
  0.0636626439071151  0.6682246082201431  0.3364545406789148   T   T   T
  0.8487585972474250  0.9027723609185685  0.3344254848722628   T   T   T
  0.5843106806933278  0.1604670414065623  0.0680716857811845   T   T   T
  0.3375536967494597  0.9222822475402452  0.0689103306657941   T   T   T
  0.5746423747997085  0.9132707357474175  0.0696936822786398   T   T   T
  0.8290109784455808  0.1470656511489565  0.0822262345414444   T   T   T
  0.3506571946324044  0.1801363996332128  0.0812434536910871   T   T   T
  0.3183871865614947  0.6697579942491814  0.0827961452390369   T   T   T
  0.5657930568060934  0.4029471544940790  0.0883771988347419   T   T   T
  0.0978080898124318  0.6635462288618115  0.0891590292421611   T   T   T
  0.8355600869548496  0.9332232399599505  0.0885967157885119   T   T   T
  0.0734478466717547  0.1727186119800805  0.0874411351142399   T   T   T
  0.3273470927610376  0.4004395825784641  0.0869938483891914   T   T   T
  0.0991149577642503  0.4253433643990689  0.0871017532123020   T   T   T
  0.8884501666411353  0.5608385838261825  0.1225473213829460   T   T   T
  0.6725143012714696  0.6118457818821312  0.1230676355012363   T   T   T
  0.9386607079396256  0.8268184676417931  0.1236161294365274   T   T   T
  0.1592609937717242  0.0546988826116745  0.1297848989233898   T   T   T
  0.8948409441343372  0.3392144707148717  0.1292305445079620   T   T   T
  0.4437924542102110  0.6036956920497261  0.1312649163376207   T   T   T
  0.6849964640256587  0.3246746946894206  0.1383139084739327   T   T   T
  0.6385590016689449  0.8146357989772355  0.1407877067090055   T   T   T
  0.1754563676129806  0.8601153148949408  0.1402065490117508   T   T   T
  0.4263047116917349  0.0772064734778013  0.1464569082651792   T   T   T
  0.6499093310676187  0.0732571663077124  0.1468602614016277   T   T   T
  0.4200300837656670  0.8469952558580331  0.1490019179435080   T   T   T
  0.0103475396783637  0.2523757438485745  0.1821925758990730   T   T   T
  0.2488292847024596  0.2582853462902932  0.1811764664127509   T   T   T
  0.2418229569306831  0.4884005918882224  0.1809424123442369   T   T   T
  0.9802011171697060  0.0062250502767114  0.1922362028699496   T   T   T
  0.4949934484294189  0.4751404023825287  0.1929223441258685   T   T   T
  0.0242811801620491  0.5164541137507115  0.1912420599324633   T   T   T
  0.5000501086617533  0.2727823185084759  0.1955759836983972   T   T   T
  0.2240629031246684  0.7266173332909602  0.1997980710271108   T   T   T
  0.7713398749539664  0.9985302162594394  0.1974908672544586   T   T   T
  0.7324811951592096  0.5066750398486235  0.2018709417359048   T   T   T
  0.9936687639277935  0.7242170144722451  0.2027493894551853   T   T   T
  0.7740783656864210  0.7695817954671043  0.2019248673132310   T   T   T
  0.5997153647295690  0.1587997620107942  0.2399431964357603   T   T   T
  0.5579733581845971  0.9001663048792707  0.2412737588184015   T   T   T
  0.3412678464976651  0.9425628174940641  0.2402133577544916   T   T   T
  0.8274267970232572  0.3904176223567575  0.2410695985232465   T   T   T
  0.5598631069709654  0.6695578997581819  0.2442275244658632   T   T   T
  0.1070590453933420  0.9392851117986822  0.2431162691285493   T   T   T
  0.3082925828933085  0.1463177416894723  0.2482914413629018   T   T   T
  0.8376171026816053  0.1922619896486850  0.2484164011174883   T   T   T
  0.3435404846643095  0.6555396169418088  0.2527305473563288   T   T   T
  0.0928388447175124  0.1778465728923209  0.2586799674548317   T   T   T
  0.0884439433990920  0.4124437613369452  0.2594458713831855   T   T   T
  0.3220024463932134  0.4141947578016669  0.2584877668347687   T   T   T
  0.6861511808331500  0.5965119610896892  0.2924419404950740   T   T   T
  0.9203125676555715  0.5786837106736087  0.2957965751644309   T   T   T
  0.9117112766589344  0.8167474457476800  0.2928583883442997   T   T   T
  0.6415131238820848  0.3397189663420264  0.2984755613965859   T   T   T
  0.1628544149254765  0.8110529949568530  0.2999130498566416   T   T   T
  0.6947758123626571  0.8546772247010779  0.3009753456824242   T   T   T
  0.8908826272942676  0.0647112425446323  0.3103960960062153   T   T   T
  0.4382893523554543  0.3272049134668364  0.3095331190367361   T   T   T
  0.1562439605399177  0.5952223312866067  0.3340420719513020   T   T   T
  0.6617034047825996  0.0583082127869261  0.3234910169623006   T   T   T
  0.4454517145900638  0.1072434114671239  0.3217781986367854   T   T   T
  0.3922010174599038  0.8378326572654942  0.3204135661374821   T   T   T
  0.2352679254424714  0.2404018950014475  0.3533222291576976   T   T   T
  0.0065160836947840  0.2664401357482618  0.3550676293419741   T   T   T
  0.2719524255808992  0.4956899277480460  0.3547460469557748   T   T   T
  0.2350132675494692  0.0035429037891888  0.3522703485976848   T   T   T
  0.7736296756762897  0.2736917216870154  0.3504000313873661   T   T   T
  0.4995161338238461  0.7356578023670153  0.3537787695413783   T   T   T
  0.5076577652647671  0.5206315222823434  0.3581373290107663   T   T   T
  0.0136124050057020  0.9961574645655276  0.3583243196952424   T   T   T
  0.7500253144080347  0.5061557168218869  0.3691105267061445   T   T   T
  0.7575484929355838  0.7536018085172884  0.3716689267150670   T   T   T
  0.9946952122473789  0.7470267306676064  0.3716194275043136   T   T   T
 
  0.00000000E+00  0.00000000E+00  0.00000000E+00
  0.00000000E+00  0.00000000E+00  0.00000000E+00
  0.00000000E+00  0.00000000E+00  0.00000000E+00
  0.00000000E+00  0.00000000E+00  0.00000000E+00
  0.00000000E+00  0.00000000E+00  0.00000000E+00
  0.00000000E+00  0.00000000E+00  0.00000000E+00
  0.00000000E+00  0.00000000E+00  0.00000000E+00
  0.00000000E+00  0.00000000E+00  0.00000000E+00
  0.00000000E+00  0.00000000E+00  0.00000000E+00
  0.00000000E+00  0.00000000E+00  0.00000000E+00
  0.00000000E+00  0.00000000E+00  0.00000000E+00
  0.00000000E+00  0.00000000E+00  0.00000000E+00
  0.00000000E+00  0.00000000E+00  0.00000000E+00
  0.00000000E+00  0.00000000E+00  0.00000000E+00
  0.00000000E+00  0.00000000E+00  0.00000000E+00
  0.00000000E+00  0.00000000E+00  0.00000000E+00
  0.00000000E+00  0.00000000E+00  0.00000000E+00
  0.00000000E+00  0.00000000E+00  0.00000000E+00
  0.00000000E+00  0.00000000E+00  0.00000000E+00
  0.00000000E+00  0.00000000E+00  0.00000000E+00
  0.00000000E+00  0.00000000E+00  0.00000000E+00
  0.00000000E+00  0.00000000E+00  0.00000000E+00
  0.00000000E+00  0.00000000E+00  0.00000000E+00
  0.00000000E+00  0.00000000E+00  0.00000000E+00
  0.00000000E+00  0.00000000E+00  0.00000000E+00
  0.00000000E+00  0.00000000E+00  0.00000000E+00
  0.00000000E+00  0.00000000E+00  0.00000000E+00
  0.00000000E+00  0.00000000E+00  0.00000000E+00
  0.00000000E+00  0.00000000E+00  0.00000000E+00
  0.00000000E+00  0.00000000E+00  0.00000000E+00
  0.00000000E+00  0.00000000E+00  0.00000000E+00
  0.00000000E+00  0.00000000E+00  0.00000000E+00
  0.00000000E+00  0.00000000E+00  0.00000000E+00
  0.00000000E+00  0.00000000E+00  0.00000000E+00
  0.00000000E+00  0.00000000E+00  0.00000000E+00
  0.00000000E+00  0.00000000E+00  0.00000000E+00
  0.00000000E+00  0.00000000E+00  0.00000000E+00
  0.00000000E+00  0.00000000E+00  0.00000000E+00
  0.00000000E+00  0.00000000E+00  0.00000000E+00
  0.00000000E+00  0.00000000E+00  0.00000000E+00
  0.00000000E+00  0.00000000E+00  0.00000000E+00
  0.00000000E+00  0.00000000E+00  0.00000000E+00
  0.00000000E+00  0.00000000E+00  0.00000000E+00
  0.00000000E+00  0.00000000E+00  0.00000000E+00
  0.00000000E+00  0.00000000E+00  0.00000000E+00
  0.00000000E+00  0.00000000E+00  0.00000000E+00
  0.00000000E+00  0.00000000E+00  0.00000000E+00
  0.00000000E+00  0.00000000E+00  0.00000000E+00
  0.00000000E+00  0.00000000E+00  0.00000000E+00
  0.00000000E+00  0.00000000E+00  0.00000000E+00
  0.00000000E+00  0.00000000E+00  0.00000000E+00
  0.00000000E+00  0.00000000E+00  0.00000000E+00
  0.00000000E+00  0.00000000E+00  0.00000000E+00
  0.00000000E+00  0.00000000E+00  0.00000000E+00
  0.00000000E+00  0.00000000E+00  0.00000000E+00
  0.00000000E+00  0.00000000E+00  0.00000000E+00
  0.00000000E+00  0.00000000E+00  0.00000000E+00
  0.00000000E+00  0.00000000E+00  0.00000000E+00
  0.00000000E+00  0.00000000E+00  0.00000000E+00
  0.00000000E+00  0.00000000E+00  0.00000000E+00
  0.00000000E+00  0.00000000E+00  0.00000000E+00
  0.00000000E+00  0.00000000E+00  0.00000000E+00
  0.00000000E+00  0.00000000E+00  0.00000000E+00
  0.00000000E+00  0.00000000E+00  0.00000000E+00
  0.00000000E+00  0.00000000E+00  0.00000000E+00
  0.00000000E+00  0.00000000E+00  0.00000000E+00
  0.00000000E+00  0.00000000E+00  0.00000000E+00
  0.00000000E+00  0.00000000E+00  0.00000000E+00
  0.00000000E+00  0.00000000E+00  0.00000000E+00
  0.00000000E+00  0.00000000E+00  0.00000000E+00
  0.00000000E+00  0.00000000E+00  0.00000000E+00
  0.00000000E+00  0.00000000E+00  0.00000000E+00
  0.00000000E+00  0.00000000E+00  0.00000000E+00
  0.00000000E+00  0.00000000E+00  0.00000000E+00
  0.00000000E+00  0.00000000E+00  0.00000000E+00
  0.00000000E+00  0.00000000E+00  0.00000000E+00
  0.00000000E+00  0.00000000E+00  0.00000000E+00
  0.00000000E+00  0.00000000E+00  0.00000000E+00
  0.00000000E+00  0.00000000E+00  0.00000000E+00
  0.00000000E+00  0.00000000E+00  0.00000000E+00
  0.00000000E+00  0.00000000E+00  0.00000000E+00
  0.00000000E+00  0.00000000E+00  0.00000000E+00
  0.00000000E+00  0.00000000E+00  0.00000000E+00
  0.00000000E+00  0.00000000E+00  0.00000000E+00
  0.00000000E+00  0.00000000E+00  0.00000000E+00
  0.00000000E+00  0.00000000E+00  0.00000000E+00
  0.00000000E+00  0.00000000E+00  0.00000000E+00
  0.00000000E+00  0.00000000E+00  0.00000000E+00
  0.00000000E+00  0.00000000E+00  0.00000000E+00
  0.00000000E+00  0.00000000E+00  0.00000000E+00
  0.00000000E+00  0.00000000E+00  0.00000000E+00
  0.00000000E+00  0.00000000E+00  0.00000000E+00
  0.00000000E+00  0.00000000E+00  0.00000000E+00
  0.00000000E+00  0.00000000E+00  0.00000000E+00
  0.00000000E+00  0.00000000E+00  0.00000000E+00
  0.00000000E+00  0.00000000E+00  0.00000000E+00
  0.00000000E+00  0.00000000E+00  0.00000000E+00
  0.00000000E+00  0.00000000E+00  0.00000000E+00
  0.00000000E+00  0.00000000E+00  0.00000000E+00
  0.00000000E+00  0.00000000E+00  0.00000000E+00
  0.00000000E+00  0.00000000E+00  0.00000000E+00
  0.00000000E+00  0.00000000E+00  0.00000000E+00
  0.00000000E+00  0.00000000E+00  0.00000000E+00
  0.00000000E+00  0.00000000E+00  0.00000000E+00
  0.00000000E+00  0.00000000E+00  0.00000000E+00
  0.00000000E+00  0.00000000E+00  0.00000000E+00
  0.00000000E+00  0.00000000E+00  0.00000000E+00
  0.00000000E+00  0.00000000E+00  0.00000000E+00
  0.00000000E+00  0.00000000E+00  0.00000000E+00
  0.00000000E+00  0.00000000E+00  0.00000000E+00
  0.00000000E+00  0.00000000E+00  0.00000000E+00
  0.00000000E+00  0.00000000E+00  0.00000000E+00
  0.00000000E+00  0.00000000E+00  0.00000000E+00
  0.00000000E+00  0.00000000E+00  0.00000000E+00
  0.00000000E+00  0.00000000E+00  0.00000000E+00
  0.00000000E+00  0.00000000E+00  0.00000000E+00
  0.00000000E+00  0.00000000E+00  0.00000000E+00
  0.00000000E+00  0.00000000E+00  0.00000000E+00
  0.00000000E+00  0.00000000E+00  0.00000000E+00
