In O                                    
   1.00000000000000     
    14.4942117030500004    0.0000000000000000    0.0000000000000000
    -7.2471058515250002   12.5523555426710001    0.0000000000000000
     0.0000000000000000    0.0000000000000000   26.8344742987830003
   In   O 
    48    71
Selective dynamics
Direct
  0.2801325665079304  0.0162445502031119  0.1067308693685050   T   T   T
  0.2403934055075254  0.2312048700766667  0.1012047066077884   T   T   T
  0.7354113851696127  0.2205442981582806  0.1049475935683120   T   T   T
  0.9896950124495305  0.2586627937381749  0.1013709520911235   T   T   T
  0.2681626453857220  0.5105735444177952  0.1018347754182827   T   T   T
  0.4845232286839334  0.7653701432101414  0.1043253817259071   T   T   T
  0.9964565168818638  0.0071989889731370  0.1122293157960641   T   T   T
  0.0110819290567150  0.5043948031907988  0.1116270802266826   T   T   T
  0.4927068080827581  0.4902162790474591  0.1102375344621933   T   T   T
  0.5001382189135413  0.0009614628089949  0.0987187616975049   T   T   T
  0.5125138213490530  0.2387866654363364  0.1102411465852242   T   T   T
  0.7202950566647033  0.4876752665137474  0.1212305957244908   T   T   T
  0.0134471410453330  0.7338763527019623  0.1210698468755282   T   T   T
  0.2612007340099680  0.7749130474659793  0.1103270807295331   T   T   T
  0.7676772187598218  0.7795693444918967  0.1204957205180364   T   T   T
  0.7263696673639899  0.9878089969612205  0.1086206809432610   T   T   T
  0.1554293020669277  0.0928951367839801  0.2132178439264436   T   T   T
  0.9373819816589801  0.3446853500780662  0.2114187537232723   T   T   T
  0.4075907712071256  0.5643862850346224  0.2109208453923728   T   T   T
  0.9006561758501874  0.5576373402403405  0.2148856377732571   T   T   T
  0.6548085352904067  0.5985402741471475  0.2144796313442043   T   T   T
  0.9438779375478532  0.8429283552654141  0.2151128601027068   T   T   T
  0.6678812649865620  0.3315887258305352  0.2197954943437779   T   T   T
  0.1682109745417719  0.8339072934370364  0.2208550710082804   T   T   T
  0.6680571119730985  0.8370324827961397  0.2176981840580012   T   T   T
  0.1648188361327954  0.3326857746967846  0.2192095705060950   T   T   T
  0.6768286262259195  0.0678801895057575  0.2235231853332351   T   T   T
  0.4330576035887006  0.1107148268076728  0.2266507714869093   T   T   T
  0.9255023865511731  0.1044055377884874  0.2278207328940596   T   T   T
  0.3926470278492289  0.3218608762854629  0.2245354405960214   T   T   T
  0.1785126395000347  0.5746083810892344  0.2285548862056075   T   T   T
  0.3917304761340930  0.8244529156146285  0.2237244746301457   T   T   T
  0.6131996545183114  0.1755202789974106  0.3212074468714263   T   T   T
  0.8243775924140522  0.4261252057589360  0.3285536459520131   T   T   T
  0.6172651318536424  0.6938518206254045  0.3228753588222588   T   T   T
  0.0740415626756743  0.8920544868578588  0.3301143106157767   T   T   T
  0.5664662222262677  0.8879771560781720  0.3205870308741723   T   T   T
  0.3221958928166444  0.9325094800560763  0.3219083130534131   T   T   T
  0.3255381811450562  0.1632862692016062  0.3336058306200940   T   T   T
  0.8394895147018246  0.1761869209178855  0.3290197636747081   T   T   T
  0.3376864866331886  0.6607202440980871  0.3287501285530254   T   T   T
  0.8360582102639995  0.6667619745709104  0.3422461267583614   T   T   T
  0.0585515789972177  0.1513036836451036  0.3376965139067778   T   T   T
  0.3176614914955422  0.3903974891818436  0.3383242028393596   T   T   T
  0.0897747675933118  0.4337547369141390  0.3382230102472619   T   T   T
  0.6044956643576000  0.4362316083483719  0.3362141909894873   T   T   T
  0.0540420414631271  0.6512206870999719  0.3344244092837769   T   T   T
  0.8515367671936858  0.9024084617177834  0.3334683283116746   T   T   T
  0.5850576144510313  0.1624498419784146  0.0688625041001316   T   T   T
  0.3385153831958760  0.9254932323788481  0.0696442929746368   T   T   T
  0.5759874560472866  0.9153763502773842  0.0680666926770996   T   T   T
  0.8294357025300840  0.1492257131430677  0.0814623865788064   T   T   T
  0.3514167432968094  0.1815927262022825  0.0829417036299205   T   T   T
  0.3180820612309319  0.6710289238893949  0.0824296560901487   T   T   T
  0.5656457127343231  0.4020578172877833  0.0891166564146459   T   T   T
  0.0978008150102241  0.6644924927718918  0.0885642708338423   T   T   T
  0.8370712602677415  0.9343017437366328  0.0883534088418827   T   T   T
  0.0730656365954587  0.1725418438783421  0.0869020769082880   T   T   T
  0.3263381664659448  0.4009104188932966  0.0870373400482620   T   T   T
  0.0992039221851400  0.4266141393755447  0.0873059446074507   T   T   T
  0.8881732730138907  0.5613580145037815  0.1235716614891160   T   T   T
  0.6722917341837800  0.6115184466676808  0.1225306567105093   T   T   T
  0.9393326714362260  0.8275155301484887  0.1229939920397456   T   T   T
  0.1599945377024952  0.0563658179331270  0.1313335288999369   T   T   T
  0.8955887937652420  0.3406260703219033  0.1299002358485595   T   T   T
  0.4442003480920178  0.6050749971790879  0.1293405844458704   T   T   T
  0.6848206275626936  0.3246683344317205  0.1400811718783430   T   T   T
  0.6397086336878530  0.8149090480766148  0.1383075522072517   T   T   T
  0.1759451044566234  0.8613669370286416  0.1407078634674335   T   T   T
  0.4271722061092333  0.0800439100855783  0.1489263800205194   T   T   T
  0.6507698307647800  0.0734459465588628  0.1464780648398261   T   T   T
  0.4232108009314643  0.8501932980929112  0.1468604693413553   T   T   T
  0.0095702359202505  0.2511505308831374  0.1811264383832665   T   T   T
  0.2466411367336860  0.2583008020671969  0.1809338609755642   T   T   T
  0.2418352857087953  0.4894999456558082  0.1821242948849005   T   T   T
  0.9800994394908287  0.0049924729460287  0.1928894318713148   T   T   T
  0.4921932623425036  0.4757434203403577  0.1912617126899647   T   T   T
  0.0260367400585366  0.5198385988981826  0.1921875390337675   T   T   T
  0.5026786131689249  0.2760670709080841  0.1998971297381615   T   T   T
  0.2271579164160471  0.7286375119388282  0.1975755121915128   T   T   T
  0.7727437467567100  0.9999136129394017  0.1956668673932001   T   T   T
  0.7305945906881490  0.5063717855065093  0.2026810855177885   T   T   T
  0.9953158350580935  0.7259204224625719  0.2018245791813555   T   T   T
  0.7742230312403606  0.7674222903403702  0.2018079881032122   T   T   T
  0.6011726810323381  0.1585471885244516  0.2402290365712858   T   T   T
  0.5589666212846396  0.9002204574170776  0.2399988551177472   T   T   T
  0.3422145496151145  0.9421111824571184  0.2413035037216531   T   T   T
  0.8322533489665176  0.3928736054001476  0.2430841858241237   T   T   T
  0.5630053510072983  0.6726524685458628  0.2410918743616506   T   T   T
  0.1096863304806845  0.9401855593827975  0.2441710315728400   T   T   T
  0.3120386735913954  0.1564666823428382  0.2527337629718716   T   T   T
  0.8380828759794809  0.1916884376745926  0.2483771507813799   T   T   T
  0.3545271231361653  0.6622884465492831  0.2484802376240438   T   T   T
  0.0922867908983704  0.1781638859256489  0.2584813590415820   T   T   T
  0.0850504129044438  0.4070185010657141  0.2586815685896937   T   T   T
  0.3237938173471022  0.4116548324918980  0.2593714386518826   T   T   T
  0.6585939273908608  0.5800191239366512  0.2958555287502236   T   T   T
  0.9047172882690546  0.5881459811159431  0.2929103465156615   T   T   T
  0.9105043462785360  0.8137416251622156  0.2925179627540331   T   T   T
  0.6481741189706298  0.3369257144499258  0.2998596220252452   T   T   T
  0.1598550909540890  0.8052570414941229  0.3009684920173683   T   T   T
  0.6983409696079619  0.8588049000105329  0.2985313957716258   T   T   T
  0.8893407746118811  0.0619980916566121  0.3095199491188367   T   T   T
  0.4388744691112194  0.3439390260146311  0.3335617798960655   T   T   T
  0.1736763857379273  0.6088383484897832  0.3103327615299776   T   T   T
  0.6618889668834953  0.0545891758869459  0.3217383329474117   T   T   T
  0.4456761691182507  0.1078664748062579  0.3204665906846245   T   T   T
  0.3963933282207037  0.8381454704618108  0.3234727057379132   T   T   T
  0.2238029265572123  0.2279155518056513  0.3548247536585833   T   T   T
  0.0052422665624832  0.2648362455984241  0.3534923825720924   T   T   T
  0.2601005661848106  0.4937826217201504  0.3552717254905247   T   T   T
  0.2360018466492093  0.0005338684836289  0.3537051898679735   T   T   T
  0.7685911475383733  0.2650909544177011  0.3523651503079250   T   T   T
  0.5001583624346608  0.7264582155768764  0.3504132320860833   T   T   T
  0.9824454438476593  0.4863836849468584  0.3582071913434390   T   T   T
  0.0131419103851513  0.9923775434245954  0.3580428130505027   T   T   T
  0.7518072620084197  0.5050753006027833  0.3715994805563980   T   T   T
  0.7563817282111813  0.7504240247663532  0.3692027239496056   T   T   T
  0.9961861298526529  0.7422893509768045  0.3717487699060626   T   T   T
 
  0.00000000E+00  0.00000000E+00  0.00000000E+00
  0.00000000E+00  0.00000000E+00  0.00000000E+00
  0.00000000E+00  0.00000000E+00  0.00000000E+00
  0.00000000E+00  0.00000000E+00  0.00000000E+00
  0.00000000E+00  0.00000000E+00  0.00000000E+00
  0.00000000E+00  0.00000000E+00  0.00000000E+00
  0.00000000E+00  0.00000000E+00  0.00000000E+00
  0.00000000E+00  0.00000000E+00  0.00000000E+00
  0.00000000E+00  0.00000000E+00  0.00000000E+00
  0.00000000E+00  0.00000000E+00  0.00000000E+00
  0.00000000E+00  0.00000000E+00  0.00000000E+00
  0.00000000E+00  0.00000000E+00  0.00000000E+00
  0.00000000E+00  0.00000000E+00  0.00000000E+00
  0.00000000E+00  0.00000000E+00  0.00000000E+00
  0.00000000E+00  0.00000000E+00  0.00000000E+00
  0.00000000E+00  0.00000000E+00  0.00000000E+00
  0.00000000E+00  0.00000000E+00  0.00000000E+00
  0.00000000E+00  0.00000000E+00  0.00000000E+00
  0.00000000E+00  0.00000000E+00  0.00000000E+00
  0.00000000E+00  0.00000000E+00  0.00000000E+00
  0.00000000E+00  0.00000000E+00  0.00000000E+00
  0.00000000E+00  0.00000000E+00  0.00000000E+00
  0.00000000E+00  0.00000000E+00  0.00000000E+00
  0.00000000E+00  0.00000000E+00  0.00000000E+00
  0.00000000E+00  0.00000000E+00  0.00000000E+00
  0.00000000E+00  0.00000000E+00  0.00000000E+00
  0.00000000E+00  0.00000000E+00  0.00000000E+00
  0.00000000E+00  0.00000000E+00  0.00000000E+00
  0.00000000E+00  0.00000000E+00  0.00000000E+00
  0.00000000E+00  0.00000000E+00  0.00000000E+00
  0.00000000E+00  0.00000000E+00  0.00000000E+00
  0.00000000E+00  0.00000000E+00  0.00000000E+00
  0.00000000E+00  0.00000000E+00  0.00000000E+00
  0.00000000E+00  0.00000000E+00  0.00000000E+00
  0.00000000E+00  0.00000000E+00  0.00000000E+00
  0.00000000E+00  0.00000000E+00  0.00000000E+00
  0.00000000E+00  0.00000000E+00  0.00000000E+00
  0.00000000E+00  0.00000000E+00  0.00000000E+00
  0.00000000E+00  0.00000000E+00  0.00000000E+00
  0.00000000E+00  0.00000000E+00  0.00000000E+00
  0.00000000E+00  0.00000000E+00  0.00000000E+00
  0.00000000E+00  0.00000000E+00  0.00000000E+00
  0.00000000E+00  0.00000000E+00  0.00000000E+00
  0.00000000E+00  0.00000000E+00  0.00000000E+00
  0.00000000E+00  0.00000000E+00  0.00000000E+00
  0.00000000E+00  0.00000000E+00  0.00000000E+00
  0.00000000E+00  0.00000000E+00  0.00000000E+00
  0.00000000E+00  0.00000000E+00  0.00000000E+00
  0.00000000E+00  0.00000000E+00  0.00000000E+00
  0.00000000E+00  0.00000000E+00  0.00000000E+00
  0.00000000E+00  0.00000000E+00  0.00000000E+00
  0.00000000E+00  0.00000000E+00  0.00000000E+00
  0.00000000E+00  0.00000000E+00  0.00000000E+00
  0.00000000E+00  0.00000000E+00  0.00000000E+00
  0.00000000E+00  0.00000000E+00  0.00000000E+00
  0.00000000E+00  0.00000000E+00  0.00000000E+00
  0.00000000E+00  0.00000000E+00  0.00000000E+00
  0.00000000E+00  0.00000000E+00  0.00000000E+00
  0.00000000E+00  0.00000000E+00  0.00000000E+00
  0.00000000E+00  0.00000000E+00  0.00000000E+00
  0.00000000E+00  0.00000000E+00  0.00000000E+00
  0.00000000E+00  0.00000000E+00  0.00000000E+00
  0.00000000E+00  0.00000000E+00  0.00000000E+00
  0.00000000E+00  0.00000000E+00  0.00000000E+00
  0.00000000E+00  0.00000000E+00  0.00000000E+00
  0.00000000E+00  0.00000000E+00  0.00000000E+00
  0.00000000E+00  0.00000000E+00  0.00000000E+00
  0.00000000E+00  0.00000000E+00  0.00000000E+00
  0.00000000E+00  0.00000000E+00  0.00000000E+00
  0.00000000E+00  0.00000000E+00  0.00000000E+00
  0.00000000E+00  0.00000000E+00  0.00000000E+00
  0.00000000E+00  0.00000000E+00  0.00000000E+00
  0.00000000E+00  0.00000000E+00  0.00000000E+00
  0.00000000E+00  0.00000000E+00  0.00000000E+00
  0.00000000E+00  0.00000000E+00  0.00000000E+00
  0.00000000E+00  0.00000000E+00  0.00000000E+00
  0.00000000E+00  0.00000000E+00  0.00000000E+00
  0.00000000E+00  0.00000000E+00  0.00000000E+00
  0.00000000E+00  0.00000000E+00  0.00000000E+00
  0.00000000E+00  0.00000000E+00  0.00000000E+00
  0.00000000E+00  0.00000000E+00  0.00000000E+00
  0.00000000E+00  0.00000000E+00  0.00000000E+00
  0.00000000E+00  0.00000000E+00  0.00000000E+00
  0.00000000E+00  0.00000000E+00  0.00000000E+00
  0.00000000E+00  0.00000000E+00  0.00000000E+00
  0.00000000E+00  0.00000000E+00  0.00000000E+00
  0.00000000E+00  0.00000000E+00  0.00000000E+00
  0.00000000E+00  0.00000000E+00  0.00000000E+00
  0.00000000E+00  0.00000000E+00  0.00000000E+00
  0.00000000E+00  0.00000000E+00  0.00000000E+00
  0.00000000E+00  0.00000000E+00  0.00000000E+00
  0.00000000E+00  0.00000000E+00  0.00000000E+00
  0.00000000E+00  0.00000000E+00  0.00000000E+00
  0.00000000E+00  0.00000000E+00  0.00000000E+00
  0.00000000E+00  0.00000000E+00  0.00000000E+00
  0.00000000E+00  0.00000000E+00  0.00000000E+00
  0.00000000E+00  0.00000000E+00  0.00000000E+00
  0.00000000E+00  0.00000000E+00  0.00000000E+00
  0.00000000E+00  0.00000000E+00  0.00000000E+00
  0.00000000E+00  0.00000000E+00  0.00000000E+00
  0.00000000E+00  0.00000000E+00  0.00000000E+00
  0.00000000E+00  0.00000000E+00  0.00000000E+00
  0.00000000E+00  0.00000000E+00  0.00000000E+00
  0.00000000E+00  0.00000000E+00  0.00000000E+00
  0.00000000E+00  0.00000000E+00  0.00000000E+00
  0.00000000E+00  0.00000000E+00  0.00000000E+00
  0.00000000E+00  0.00000000E+00  0.00000000E+00
  0.00000000E+00  0.00000000E+00  0.00000000E+00
  0.00000000E+00  0.00000000E+00  0.00000000E+00
  0.00000000E+00  0.00000000E+00  0.00000000E+00
  0.00000000E+00  0.00000000E+00  0.00000000E+00
  0.00000000E+00  0.00000000E+00  0.00000000E+00
  0.00000000E+00  0.00000000E+00  0.00000000E+00
  0.00000000E+00  0.00000000E+00  0.00000000E+00
  0.00000000E+00  0.00000000E+00  0.00000000E+00
  0.00000000E+00  0.00000000E+00  0.00000000E+00
  0.00000000E+00  0.00000000E+00  0.00000000E+00
  0.00000000E+00  0.00000000E+00  0.00000000E+00
  0.00000000E+00  0.00000000E+00  0.00000000E+00
