In O                                    
   1.00000000000000     
    14.4942117030500004    0.0000000000000000    0.0000000000000000
    -7.2471058515250002   12.5523555426710001    0.0000000000000000
     0.0000000000000000    0.0000000000000000   26.8344742987830003
   In   O 
    48    71
Selective dynamics
Direct
  0.2803960467892708  0.0158392205165541  0.1066924562505847   T   T   T
  0.2413572898439185  0.2316136975779486  0.1014489091277184   T   T   T
  0.7353240843873792  0.2194571706720083  0.1064535577998242   T   T   T
  0.9902654992834030  0.2583450475692999  0.1013802328342592   T   T   T
  0.2686549788797024  0.5101354007545140  0.1025519475098449   T   T   T
  0.4844600711857012  0.7646693968137441  0.1067666089762227   T   T   T
  0.9959907011655815  0.0082927485984854  0.1107344709300335   T   T   T
  0.0122242481346007  0.5041537643675014  0.1115662161417887   T   T   T
  0.4923779764193270  0.4886877210633784  0.1117743471194714   T   T   T
  0.5000655539861896  0.9999763982770773  0.1001571481060495   T   T   T
  0.5130804254014976  0.2382922007617623  0.1104038666549201   T   T   T
  0.7202001158938458  0.4868036321434630  0.1202527813523986   T   T   T
  0.0133668479345133  0.7335535530839365  0.1209383349964597   T   T   T
  0.2615640859484714  0.7742707497644048  0.1111592665843446   T   T   T
  0.7656783085412471  0.7790147270332000  0.1207665337811221   T   T   T
  0.7256577682795324  0.9870864589007837  0.1120272414824086   T   T   T
  0.1542731247455151  0.0922741069146937  0.2112095367882247   T   T   T
  0.9391423875126037  0.3436921933257935  0.2103506731499394   T   T   T
  0.4079288970738730  0.5630410875483776  0.2124197771406742   T   T   T
  0.8996849690413953  0.5571119410273369  0.2134605483684666   T   T   T
  0.6568244459256292  0.5995909679133717  0.2144326924746878   T   T   T
  0.9448555049703984  0.8457979512946281  0.2121587314637097   T   T   T
  0.6654040320292580  0.3332881040077424  0.2202897610433965   T   T   T
  0.1678490430436312  0.8339252828788233  0.2206425959531231   T   T   T
  0.6671522660339591  0.8335908705996289  0.2212476073499445   T   T   T
  0.1661246005274819  0.3334979314343443  0.2200509892822566   T   T   T
  0.6767893864512615  0.0681314979425522  0.2265339131503339   T   T   T
  0.4329872991391071  0.1097777921089005  0.2262391045961394   T   T   T
  0.9261643728676816  0.1046047882166690  0.2284084045949371   T   T   T
  0.3916651923727557  0.3197296672308170  0.2269233856452786   T   T   T
  0.1786592332374255  0.5743832455046842  0.2288716549533945   T   T   T
  0.3908142190341195  0.8233738843760108  0.2256695003330407   T   T   T
  0.6113012039240786  0.1774108966767400  0.3233351837526328   T   T   T
  0.8327583985565212  0.4162679002427367  0.3216760437696422   T   T   T
  0.6062902534641594  0.6804241254060059  0.3303353654000674   T   T   T
  0.0743667605762681  0.8964201711666888  0.3284699981233246   T   T   T
  0.5657278030815363  0.8872125118999818  0.3211458039503157   T   T   T
  0.3211306035142343  0.9329603350121971  0.3211478242205459   T   T   T
  0.3181785350319970  0.1597246183848142  0.3286813072514860   T   T   T
  0.8403906480918408  0.1742629476793951  0.3295686482956839   T   T   T
  0.3370283118147910  0.6606491193240345  0.3296423588786865   T   T   T
  0.8404054706295270  0.6808919579541950  0.3320645978987926   T   T   T
  0.0650202591971762  0.1569446024681582  0.3385161826590348   T   T   T
  0.3374215744596682  0.4060502778533888  0.3382548581303340   T   T   T
  0.0935076375900579  0.4340758820215811  0.3384983484142197   T   T   T
  0.5819923263115854  0.4401717792454178  0.3285022670771696   T   T   T
  0.0528158268199519  0.6512608756579681  0.3341747744210224   T   T   T
  0.8490764483583746  0.9052331814155608  0.3352041592260946   T   T   T
  0.5855894617176745  0.1610193258728785  0.0698456498129048   T   T   T
  0.3386576880313825  0.9242426824500711  0.0703526296765205   T   T   T
  0.5767645450321766  0.9150061022837832  0.0706513197856680   T   T   T
  0.8291399327482551  0.1474000907569746  0.0836832513209913   T   T   T
  0.3521466956701431  0.1814891328821915  0.0832991749398460   T   T   T
  0.3188700764445613  0.6705947925582549  0.0834221624734894   T   T   T
  0.5655690643704858  0.4014008633452377  0.0888878645273152   T   T   T
  0.0981626895697900  0.6643375099063320  0.0889302630142481   T   T   T
  0.8351122477224493  0.9333164259192230  0.0889624975561176   T   T   T
  0.0739081854299286  0.1733295828834187  0.0861038635416236   T   T   T
  0.3270911664971976  0.4009922420484031  0.0872955332244700   T   T   T
  0.0996462513253320  0.4262163162417778  0.0871666591566367   T   T   T
  0.8883142101649568  0.5612894844322724  0.1233061261302026   T   T   T
  0.6725295624233354  0.6109548986865434  0.1226108468130676   T   T   T
  0.9388474133861067  0.8273022917947088  0.1231557981949010   T   T   T
  0.1590439128928978  0.0556620723661680  0.1296538200046271   T   T   T
  0.8964219897679442  0.3408151201357938  0.1298211116077894   T   T   T
  0.4446189698749805  0.6040267262971000  0.1311652468998048   T   T   T
  0.6854242116084066  0.3247993322695777  0.1404755916164504   T   T   T
  0.6387777363545268  0.8136516806183920  0.1413373247881680   T   T   T
  0.1749390316134622  0.8608496038680826  0.1407379249933385   T   T   T
  0.4275371157280929  0.0789912836446263  0.1488361429378884   T   T   T
  0.6505657657306472  0.0743215651649152  0.1494309299913752   T   T   T
  0.4223329007655039  0.8493523587067813  0.1484984247118746   T   T   T
  0.0109311466320605  0.2506266616645334  0.1811852232015809   T   T   T
  0.2471979431969444  0.2589983013439365  0.1811782105705717   T   T   T
  0.2404123597742114  0.4899113006111619  0.1821218084426448   T   T   T
  0.9805632061975587  0.0073899189145479  0.1913198210745790   T   T   T
  0.4940895613324585  0.4741967703082253  0.1926818944871371   T   T   T
  0.0248426110168154  0.5193580824970425  0.1926626266840330   T   T   T
  0.5027052872066591  0.2751507777167177  0.1997760190876008   T   T   T
  0.2260263971876739  0.7278942908717312  0.1981533187809248   T   T   T
  0.7719316154439753  0.9981608524944932  0.1984447746532965   T   T   T
  0.7305233057587159  0.5050964737410411  0.2020125835136142   T   T   T
  0.9935396423876597  0.7246196396438691  0.2025453826225458   T   T   T
  0.7745510401518985  0.7674847989803979  0.2018418564202022   T   T   T
  0.6038938112883443  0.1653957836397097  0.2427255700088295   T   T   T
  0.5588578756436746  0.8985853951151910  0.2405368557617962   T   T   T
  0.3408227775996124  0.9416603009961761  0.2407429501239946   T   T   T
  0.8305728302777950  0.3903410339165987  0.2414925156545422   T   T   T
  0.5631715874133576  0.6666574621952250  0.2455671567500133   T   T   T
  0.1078016016553320  0.9390052262922524  0.2428999233158748   T   T   T
  0.3056042372499377  0.1445665736588424  0.2481198124786559   T   T   T
  0.8399765719789727  0.1935951092499764  0.2491724092067784   T   T   T
  0.3543174520087504  0.6613395100441011  0.2492588322885680   T   T   T
  0.0928586000860179  0.1775204918295969  0.2589412761835774   T   T   T
  0.0838347578097327  0.4069636193604111  0.2590087093043607   T   T   T
  0.3212147429511489  0.4155692771261315  0.2588734140481748   T   T   T
  0.6858019505732003  0.5889772604282300  0.2949019304797389   T   T   T
  0.8966894798699272  0.5811077080624756  0.2949668545844375   T   T   T
  0.9128776560455449  0.8255971961408690  0.2900820985876180   T   T   T
  0.6601908185504541  0.3555285053545560  0.3098978879190781   T   T   T
  0.1570239193885570  0.8055723292878412  0.3010320204875683   T   T   T
  0.6940763563091252  0.8526878159537929  0.3018408259770169   T   T   T
  0.8902907075844979  0.0628849305164465  0.3101853410188440   T   T   T
  0.4295762919104789  0.3221209606722368  0.3076945078336877   T   T   T
  0.1723993568052933  0.6100203509467121  0.3107693574460271   T   T   T
  0.6603628016576337  0.0549432221844910  0.3199962767473323   T   T   T
  0.4444562690109635  0.1074525831923481  0.3202394905436776   T   T   T
  0.3940564575243286  0.8386763368563308  0.3204031959514637   T   T   T
  0.2331414785762860  0.2391454194409590  0.3547952183994241   T   T   T
  0.0062650858958406  0.2655870753129719  0.3542889602596233   T   T   T
  0.2597960643423463  0.4949632392623045  0.3549710941324307   T   T   T
  0.2348237209089845  0.0010175678164330  0.3532413142445350   T   T   T
  0.7684059187760397  0.2620835364627325  0.3534592159661472   T   T   T
  0.4972909168630366  0.7323848042167498  0.3533406403551282   T   T   T
  0.9823050835670415  0.4851968915635112  0.3581583455195343   T   T   T
  0.5017759244527369  0.5166116143294417  0.3575324207270896   T   T   T
  0.0146484584212487  0.9961299052220696  0.3585547752969234   T   T   T
  0.7583633500102138  0.7498868898064757  0.3698951479348622   T   T   T
  0.9905794571016244  0.7417775252533616  0.3689412795415805   T   T   T
 
  0.00000000E+00  0.00000000E+00  0.00000000E+00
  0.00000000E+00  0.00000000E+00  0.00000000E+00
  0.00000000E+00  0.00000000E+00  0.00000000E+00
  0.00000000E+00  0.00000000E+00  0.00000000E+00
  0.00000000E+00  0.00000000E+00  0.00000000E+00
  0.00000000E+00  0.00000000E+00  0.00000000E+00
  0.00000000E+00  0.00000000E+00  0.00000000E+00
  0.00000000E+00  0.00000000E+00  0.00000000E+00
  0.00000000E+00  0.00000000E+00  0.00000000E+00
  0.00000000E+00  0.00000000E+00  0.00000000E+00
  0.00000000E+00  0.00000000E+00  0.00000000E+00
  0.00000000E+00  0.00000000E+00  0.00000000E+00
  0.00000000E+00  0.00000000E+00  0.00000000E+00
  0.00000000E+00  0.00000000E+00  0.00000000E+00
  0.00000000E+00  0.00000000E+00  0.00000000E+00
  0.00000000E+00  0.00000000E+00  0.00000000E+00
  0.00000000E+00  0.00000000E+00  0.00000000E+00
  0.00000000E+00  0.00000000E+00  0.00000000E+00
  0.00000000E+00  0.00000000E+00  0.00000000E+00
  0.00000000E+00  0.00000000E+00  0.00000000E+00
  0.00000000E+00  0.00000000E+00  0.00000000E+00
  0.00000000E+00  0.00000000E+00  0.00000000E+00
  0.00000000E+00  0.00000000E+00  0.00000000E+00
  0.00000000E+00  0.00000000E+00  0.00000000E+00
  0.00000000E+00  0.00000000E+00  0.00000000E+00
  0.00000000E+00  0.00000000E+00  0.00000000E+00
  0.00000000E+00  0.00000000E+00  0.00000000E+00
  0.00000000E+00  0.00000000E+00  0.00000000E+00
  0.00000000E+00  0.00000000E+00  0.00000000E+00
  0.00000000E+00  0.00000000E+00  0.00000000E+00
  0.00000000E+00  0.00000000E+00  0.00000000E+00
  0.00000000E+00  0.00000000E+00  0.00000000E+00
  0.00000000E+00  0.00000000E+00  0.00000000E+00
  0.00000000E+00  0.00000000E+00  0.00000000E+00
  0.00000000E+00  0.00000000E+00  0.00000000E+00
  0.00000000E+00  0.00000000E+00  0.00000000E+00
  0.00000000E+00  0.00000000E+00  0.00000000E+00
  0.00000000E+00  0.00000000E+00  0.00000000E+00
  0.00000000E+00  0.00000000E+00  0.00000000E+00
  0.00000000E+00  0.00000000E+00  0.00000000E+00
  0.00000000E+00  0.00000000E+00  0.00000000E+00
  0.00000000E+00  0.00000000E+00  0.00000000E+00
  0.00000000E+00  0.00000000E+00  0.00000000E+00
  0.00000000E+00  0.00000000E+00  0.00000000E+00
  0.00000000E+00  0.00000000E+00  0.00000000E+00
  0.00000000E+00  0.00000000E+00  0.00000000E+00
  0.00000000E+00  0.00000000E+00  0.00000000E+00
  0.00000000E+00  0.00000000E+00  0.00000000E+00
  0.00000000E+00  0.00000000E+00  0.00000000E+00
  0.00000000E+00  0.00000000E+00  0.00000000E+00
  0.00000000E+00  0.00000000E+00  0.00000000E+00
  0.00000000E+00  0.00000000E+00  0.00000000E+00
  0.00000000E+00  0.00000000E+00  0.00000000E+00
  0.00000000E+00  0.00000000E+00  0.00000000E+00
  0.00000000E+00  0.00000000E+00  0.00000000E+00
  0.00000000E+00  0.00000000E+00  0.00000000E+00
  0.00000000E+00  0.00000000E+00  0.00000000E+00
  0.00000000E+00  0.00000000E+00  0.00000000E+00
  0.00000000E+00  0.00000000E+00  0.00000000E+00
  0.00000000E+00  0.00000000E+00  0.00000000E+00
  0.00000000E+00  0.00000000E+00  0.00000000E+00
  0.00000000E+00  0.00000000E+00  0.00000000E+00
  0.00000000E+00  0.00000000E+00  0.00000000E+00
  0.00000000E+00  0.00000000E+00  0.00000000E+00
  0.00000000E+00  0.00000000E+00  0.00000000E+00
  0.00000000E+00  0.00000000E+00  0.00000000E+00
  0.00000000E+00  0.00000000E+00  0.00000000E+00
  0.00000000E+00  0.00000000E+00  0.00000000E+00
  0.00000000E+00  0.00000000E+00  0.00000000E+00
  0.00000000E+00  0.00000000E+00  0.00000000E+00
  0.00000000E+00  0.00000000E+00  0.00000000E+00
  0.00000000E+00  0.00000000E+00  0.00000000E+00
  0.00000000E+00  0.00000000E+00  0.00000000E+00
  0.00000000E+00  0.00000000E+00  0.00000000E+00
  0.00000000E+00  0.00000000E+00  0.00000000E+00
  0.00000000E+00  0.00000000E+00  0.00000000E+00
  0.00000000E+00  0.00000000E+00  0.00000000E+00
  0.00000000E+00  0.00000000E+00  0.00000000E+00
  0.00000000E+00  0.00000000E+00  0.00000000E+00
  0.00000000E+00  0.00000000E+00  0.00000000E+00
  0.00000000E+00  0.00000000E+00  0.00000000E+00
  0.00000000E+00  0.00000000E+00  0.00000000E+00
  0.00000000E+00  0.00000000E+00  0.00000000E+00
  0.00000000E+00  0.00000000E+00  0.00000000E+00
  0.00000000E+00  0.00000000E+00  0.00000000E+00
  0.00000000E+00  0.00000000E+00  0.00000000E+00
  0.00000000E+00  0.00000000E+00  0.00000000E+00
  0.00000000E+00  0.00000000E+00  0.00000000E+00
  0.00000000E+00  0.00000000E+00  0.00000000E+00
  0.00000000E+00  0.00000000E+00  0.00000000E+00
  0.00000000E+00  0.00000000E+00  0.00000000E+00
  0.00000000E+00  0.00000000E+00  0.00000000E+00
  0.00000000E+00  0.00000000E+00  0.00000000E+00
  0.00000000E+00  0.00000000E+00  0.00000000E+00
  0.00000000E+00  0.00000000E+00  0.00000000E+00
  0.00000000E+00  0.00000000E+00  0.00000000E+00
  0.00000000E+00  0.00000000E+00  0.00000000E+00
  0.00000000E+00  0.00000000E+00  0.00000000E+00
  0.00000000E+00  0.00000000E+00  0.00000000E+00
  0.00000000E+00  0.00000000E+00  0.00000000E+00
  0.00000000E+00  0.00000000E+00  0.00000000E+00
  0.00000000E+00  0.00000000E+00  0.00000000E+00
  0.00000000E+00  0.00000000E+00  0.00000000E+00
  0.00000000E+00  0.00000000E+00  0.00000000E+00
  0.00000000E+00  0.00000000E+00  0.00000000E+00
  0.00000000E+00  0.00000000E+00  0.00000000E+00
  0.00000000E+00  0.00000000E+00  0.00000000E+00
  0.00000000E+00  0.00000000E+00  0.00000000E+00
  0.00000000E+00  0.00000000E+00  0.00000000E+00
  0.00000000E+00  0.00000000E+00  0.00000000E+00
  0.00000000E+00  0.00000000E+00  0.00000000E+00
  0.00000000E+00  0.00000000E+00  0.00000000E+00
  0.00000000E+00  0.00000000E+00  0.00000000E+00
  0.00000000E+00  0.00000000E+00  0.00000000E+00
  0.00000000E+00  0.00000000E+00  0.00000000E+00
  0.00000000E+00  0.00000000E+00  0.00000000E+00
  0.00000000E+00  0.00000000E+00  0.00000000E+00
  0.00000000E+00  0.00000000E+00  0.00000000E+00
  0.00000000E+00  0.00000000E+00  0.00000000E+00
