In O                                    
   1.00000000000000     
    14.4942117030500004    0.0000000000000000    0.0000000000000000
    -7.2471058515250002   12.5523555426710001    0.0000000000000000
     0.0000000000000000    0.0000000000000000   26.8344742987830003
   In   O 
    48    71
Selective dynamics
Direct
  0.2808995518155299  0.0156185816040448  0.1044857743574070   T   T   T
  0.2424006657428421  0.2319072593980849  0.1017965608464806   T   T   T
  0.7360931727254041  0.2198091814464718  0.1067895294399577   T   T   T
  0.9906663175979205  0.2595103582422595  0.1012943585397323   T   T   T
  0.2689057793329042  0.5103200927247258  0.1013515103270919   T   T   T
  0.4849638541838743  0.7645286309054313  0.1050991050665573   T   T   T
  0.9975086900876917  0.0075210362800746  0.1103846994969473   T   T   T
  0.0107752692378043  0.5034663692674712  0.1122432742774890   T   T   T
  0.4931540471865361  0.4888422434210327  0.1116583430220288   T   T   T
  0.5007805116907420  0.9999344463775088  0.0986178506053648   T   T   T
  0.5137539068595132  0.2388930180890085  0.1102916469650381   T   T   T
  0.7204613095368870  0.4867424908909186  0.1210373005068988   T   T   T
  0.0117282279120516  0.7321991302783175  0.1204833206971330   T   T   T
  0.2613572856217985  0.7736658124738938  0.1085784305631918   T   T   T
  0.7675141248538893  0.7796772091157891  0.1212279882866412   T   T   T
  0.7261639782541280  0.9874205056610563  0.1101331717478686   T   T   T
  0.1568785274480078  0.0925024232080247  0.2108742913717307   T   T   T
  0.9374124361493372  0.3444227752846132  0.2131607241439255   T   T   T
  0.4072676508468049  0.5625372398354571  0.2113642877462212   T   T   T
  0.8990817169272844  0.5560634812422052  0.2151076064581190   T   T   T
  0.6569826462119082  0.5994347703322518  0.2148687251209367   T   T   T
  0.9437313666092066  0.8451080806261473  0.2144912097073615   T   T   T
  0.6657436261399283  0.3317889531994282  0.2208559058054220   T   T   T
  0.1689434850781026  0.8319670184382488  0.2177402946436473   T   T   T
  0.6635905902697914  0.8320981199162674  0.2197702165582598   T   T   T
  0.1678940283785408  0.3351633693559890  0.2191197755847369   T   T   T
  0.6777401255774009  0.0669421433632138  0.2266332008261500   T   T   T
  0.4328268992675817  0.1083919874846444  0.2237960143023940   T   T   T
  0.9291667672299084  0.1070957332760756  0.2249046463620346   T   T   T
  0.3961569321065426  0.3215345249553323  0.2285861173045589   T   T   T
  0.1788153939623385  0.5743985322831477  0.2278947166452454   T   T   T
  0.3909027776990328  0.8230613332687824  0.2236107889017518   T   T   T
  0.6102537371215249  0.1777056777261166  0.3219152736736959   T   T   T
  0.8179398763726198  0.4260008482720608  0.3301895256789180   T   T   T
  0.6018422504425729  0.6757693721682116  0.3286061942180964   T   T   T
  0.0766310976958522  0.8824857105134001  0.3229657837134141   T   T   T
  0.5622392882897742  0.8867922610455352  0.3211894750544744   T   T   T
  0.3216488330827616  0.9336456376933953  0.3205827592630683   T   T   T
  0.3228926804219086  0.1622588184728571  0.3287513496857670   T   T   T
  0.8377052069604503  0.1746282935882419  0.3335148099249494   T   T   T
  0.3366666635118420  0.6602057726029784  0.3290190667019885   T   T   T
  0.8308171112901022  0.6640914567248686  0.3424204699770925   T   T   T
  0.0730091600980458  0.1826124517500531  0.3381919080715434   T   T   T
  0.3441377309313012  0.4103171675002457  0.3382300621323395   T   T   T
  0.0926484571581625  0.4412478432491085  0.3377320804363606   T   T   T
  0.5971868404805036  0.4460817883380699  0.3342851324716705   T   T   T
  0.0507894587200255  0.6482901521279700  0.3334374175135224   T   T   T
  0.8320590776375099  0.8957309903228747  0.3358352814948731   T   T   T
  0.5869668902692240  0.1615453684923551  0.0696237916916473   T   T   T
  0.3393437755800477  0.9241641259932649  0.0681171583992892   T   T   T
  0.5771762087033849  0.9148303003540690  0.0688782909074064   T   T   T
  0.8301265146955075  0.1485170690046829  0.0829497648971085   T   T   T
  0.3529435073265006  0.1820265008205055  0.0825064356664811   T   T   T
  0.3196343929522669  0.6705073691466978  0.0815417563882335   T   T   T
  0.5666869566382502  0.4021889502630529  0.0886004876553201   T   T   T
  0.0972477666341049  0.6630315421946378  0.0884197265110842   T   T   T
  0.8363615854711028  0.9343864458228239  0.0891780152795008   T   T   T
  0.0745196412077576  0.1737436922098468  0.0870299273804065   T   T   T
  0.3273511757246155  0.4007825533082965  0.0872230054234251   T   T   T
  0.0994891104603326  0.4268683728030069  0.0869256037064190   T   T   T
  0.8881579688535766  0.5606724688506048  0.1228277194182184   T   T   T
  0.6732016321754628  0.6118877142382289  0.1234732443444102   T   T   T
  0.9392396658485964  0.8277807593189692  0.1224806980019366   T   T   T
  0.1607431069482743  0.0558896406412401  0.1293403356425316   T   T   T
  0.8964525031703303  0.3400435671564566  0.1312970449325803   T   T   T
  0.4448957335357306  0.6042636310516158  0.1298892068946529   T   T   T
  0.6853927285926957  0.3241024096207568  0.1407206396115299   T   T   T
  0.6398368354387358  0.8151691893598709  0.1400776725668891   T   T   T
  0.1751904901505128  0.8602754482390580  0.1383676241507459   T   T   T
  0.4270973895976269  0.0768452525098269  0.1468519304739360   T   T   T
  0.6527643155859764  0.0727696715218471  0.1488515499635099   T   T   T
  0.4226188921700427  0.8493398847582867  0.1464924009961663   T   T   T
  0.0113907816413743  0.2529866643758965  0.1810020724076864   T   T   T
  0.2479633448922911  0.2583863008440019  0.1820353210591534   T   T   T
  0.2413949917127880  0.4903582801141013  0.1811166801817663   T   T   T
  0.9835327119375776  0.0077044194656182  0.1914291963533614   T   T   T
  0.4939370085676771  0.4739594409623251  0.1922121626540516   T   T   T
  0.0249041653877882  0.5198542464456963  0.1929089159917723   T   T   T
  0.5016165283610974  0.2729641177952900  0.1976189260326464   T   T   T
  0.2270026406313974  0.7271449267590739  0.1957394258624419   T   T   T
  0.7733795417811891  0.9972652082396323  0.1998955892850489   T   T   T
  0.7305697566490750  0.5047800275016670  0.2018826744696369   T   T   T
  0.9931623743007378  0.7256089982004639  0.2018583103692322   T   T   T
  0.7759253332783302  0.7695649446088453  0.2027402576573678   T   T   T
  0.6000780495613540  0.1577942032211581  0.2412391078423326   T   T   T
  0.5571728214826877  0.8987584585062862  0.2401575734649128   T   T   T
  0.3411487460095728  0.9411646526342423  0.2398975441783264   T   T   T
  0.8304675399543910  0.3902679204077231  0.2441724217795027   T   T   T
  0.5605854729002999  0.6677891280477652  0.2430826666772958   T   T   T
  0.1097241075904449  0.9370628585010010  0.2412089514726503   T   T   T
  0.3077245156469530  0.1454291098058036  0.2484677334989911   T   T   T
  0.8442465100907057  0.1880514889610367  0.2526847180842466   T   T   T
  0.3535828032041550  0.6617647765720278  0.2483738861272258   T   T   T
  0.0885952668720904  0.1767137467968283  0.2593183928252003   T   T   T
  0.0857733865219359  0.4076096569444871  0.2585110127621704   T   T   T
  0.3220342483858474  0.4150377057522405  0.2586706970557202   T   T   T
  0.6835538894301507  0.5954392976512040  0.2929960770778877   T   T   T
  0.9033089642573202  0.5896315529541596  0.2925881342775725   T   T   T
  0.9214190676256067  0.8408329470893960  0.2958868592316151   T   T   T
  0.6455385092188379  0.3402490254940531  0.3009356252419337   T   T   T
  0.1604924914679771  0.8015180897818155  0.2985162662176535   T   T   T
  0.6886586473431890  0.8517548741705951  0.2998042209026011   T   T   T
  0.9054689545767687  0.0613983628877932  0.3322647359009707   T   T   T
  0.4350905415957556  0.3262441886089746  0.3103460519538359   T   T   T
  0.1726683974575778  0.6104256484257391  0.3096441648591508   T   T   T
  0.6621805215185290  0.0542612563361686  0.3206677757438143   T   T   T
  0.4418275430350960  0.1036548129895181  0.3234900187083980   T   T   T
  0.3926232194555794  0.8380268280341312  0.3216696080384409   T   T   T
  0.2337637869565370  0.2400385400917457  0.3554273005302377   T   T   T
  0.0039781430224650  0.2760620435279151  0.3549486323759155   T   T   T
  0.2595130057952062  0.4945016455462650  0.3535763538351091   T   T   T
  0.2263656674648686  0.9998284275245766  0.3504023727802164   T   T   T
  0.7645369831503501  0.2640112483928334  0.3537015373365335   T   T   T
  0.4964720756436236  0.7314314467516070  0.3523829300203758   T   T   T
  0.9792003570542818  0.4866620798808583  0.3580498239032153   T   T   T
  0.5039185479400601  0.5176074628056568  0.3581785031186087   T   T   T
  0.7460968399873735  0.5039365735575387  0.3717610732830536   T   T   T
  0.7535300430928089  0.7486486577604410  0.3715639835332070   T   T   T
  0.9941038970215104  0.7434568262249854  0.3693341631553864   T   T   T
 
  0.00000000E+00  0.00000000E+00  0.00000000E+00
  0.00000000E+00  0.00000000E+00  0.00000000E+00
  0.00000000E+00  0.00000000E+00  0.00000000E+00
  0.00000000E+00  0.00000000E+00  0.00000000E+00
  0.00000000E+00  0.00000000E+00  0.00000000E+00
  0.00000000E+00  0.00000000E+00  0.00000000E+00
  0.00000000E+00  0.00000000E+00  0.00000000E+00
  0.00000000E+00  0.00000000E+00  0.00000000E+00
  0.00000000E+00  0.00000000E+00  0.00000000E+00
  0.00000000E+00  0.00000000E+00  0.00000000E+00
  0.00000000E+00  0.00000000E+00  0.00000000E+00
  0.00000000E+00  0.00000000E+00  0.00000000E+00
  0.00000000E+00  0.00000000E+00  0.00000000E+00
  0.00000000E+00  0.00000000E+00  0.00000000E+00
  0.00000000E+00  0.00000000E+00  0.00000000E+00
  0.00000000E+00  0.00000000E+00  0.00000000E+00
  0.00000000E+00  0.00000000E+00  0.00000000E+00
  0.00000000E+00  0.00000000E+00  0.00000000E+00
  0.00000000E+00  0.00000000E+00  0.00000000E+00
  0.00000000E+00  0.00000000E+00  0.00000000E+00
  0.00000000E+00  0.00000000E+00  0.00000000E+00
  0.00000000E+00  0.00000000E+00  0.00000000E+00
  0.00000000E+00  0.00000000E+00  0.00000000E+00
  0.00000000E+00  0.00000000E+00  0.00000000E+00
  0.00000000E+00  0.00000000E+00  0.00000000E+00
  0.00000000E+00  0.00000000E+00  0.00000000E+00
  0.00000000E+00  0.00000000E+00  0.00000000E+00
  0.00000000E+00  0.00000000E+00  0.00000000E+00
  0.00000000E+00  0.00000000E+00  0.00000000E+00
  0.00000000E+00  0.00000000E+00  0.00000000E+00
  0.00000000E+00  0.00000000E+00  0.00000000E+00
  0.00000000E+00  0.00000000E+00  0.00000000E+00
  0.00000000E+00  0.00000000E+00  0.00000000E+00
  0.00000000E+00  0.00000000E+00  0.00000000E+00
  0.00000000E+00  0.00000000E+00  0.00000000E+00
  0.00000000E+00  0.00000000E+00  0.00000000E+00
  0.00000000E+00  0.00000000E+00  0.00000000E+00
  0.00000000E+00  0.00000000E+00  0.00000000E+00
  0.00000000E+00  0.00000000E+00  0.00000000E+00
  0.00000000E+00  0.00000000E+00  0.00000000E+00
  0.00000000E+00  0.00000000E+00  0.00000000E+00
  0.00000000E+00  0.00000000E+00  0.00000000E+00
  0.00000000E+00  0.00000000E+00  0.00000000E+00
  0.00000000E+00  0.00000000E+00  0.00000000E+00
  0.00000000E+00  0.00000000E+00  0.00000000E+00
  0.00000000E+00  0.00000000E+00  0.00000000E+00
  0.00000000E+00  0.00000000E+00  0.00000000E+00
  0.00000000E+00  0.00000000E+00  0.00000000E+00
  0.00000000E+00  0.00000000E+00  0.00000000E+00
  0.00000000E+00  0.00000000E+00  0.00000000E+00
  0.00000000E+00  0.00000000E+00  0.00000000E+00
  0.00000000E+00  0.00000000E+00  0.00000000E+00
  0.00000000E+00  0.00000000E+00  0.00000000E+00
  0.00000000E+00  0.00000000E+00  0.00000000E+00
  0.00000000E+00  0.00000000E+00  0.00000000E+00
  0.00000000E+00  0.00000000E+00  0.00000000E+00
  0.00000000E+00  0.00000000E+00  0.00000000E+00
  0.00000000E+00  0.00000000E+00  0.00000000E+00
  0.00000000E+00  0.00000000E+00  0.00000000E+00
  0.00000000E+00  0.00000000E+00  0.00000000E+00
  0.00000000E+00  0.00000000E+00  0.00000000E+00
  0.00000000E+00  0.00000000E+00  0.00000000E+00
  0.00000000E+00  0.00000000E+00  0.00000000E+00
  0.00000000E+00  0.00000000E+00  0.00000000E+00
  0.00000000E+00  0.00000000E+00  0.00000000E+00
  0.00000000E+00  0.00000000E+00  0.00000000E+00
  0.00000000E+00  0.00000000E+00  0.00000000E+00
  0.00000000E+00  0.00000000E+00  0.00000000E+00
  0.00000000E+00  0.00000000E+00  0.00000000E+00
  0.00000000E+00  0.00000000E+00  0.00000000E+00
  0.00000000E+00  0.00000000E+00  0.00000000E+00
  0.00000000E+00  0.00000000E+00  0.00000000E+00
  0.00000000E+00  0.00000000E+00  0.00000000E+00
  0.00000000E+00  0.00000000E+00  0.00000000E+00
  0.00000000E+00  0.00000000E+00  0.00000000E+00
  0.00000000E+00  0.00000000E+00  0.00000000E+00
  0.00000000E+00  0.00000000E+00  0.00000000E+00
  0.00000000E+00  0.00000000E+00  0.00000000E+00
  0.00000000E+00  0.00000000E+00  0.00000000E+00
  0.00000000E+00  0.00000000E+00  0.00000000E+00
  0.00000000E+00  0.00000000E+00  0.00000000E+00
  0.00000000E+00  0.00000000E+00  0.00000000E+00
  0.00000000E+00  0.00000000E+00  0.00000000E+00
  0.00000000E+00  0.00000000E+00  0.00000000E+00
  0.00000000E+00  0.00000000E+00  0.00000000E+00
  0.00000000E+00  0.00000000E+00  0.00000000E+00
  0.00000000E+00  0.00000000E+00  0.00000000E+00
  0.00000000E+00  0.00000000E+00  0.00000000E+00
  0.00000000E+00  0.00000000E+00  0.00000000E+00
  0.00000000E+00  0.00000000E+00  0.00000000E+00
  0.00000000E+00  0.00000000E+00  0.00000000E+00
  0.00000000E+00  0.00000000E+00  0.00000000E+00
  0.00000000E+00  0.00000000E+00  0.00000000E+00
  0.00000000E+00  0.00000000E+00  0.00000000E+00
  0.00000000E+00  0.00000000E+00  0.00000000E+00
  0.00000000E+00  0.00000000E+00  0.00000000E+00
  0.00000000E+00  0.00000000E+00  0.00000000E+00
  0.00000000E+00  0.00000000E+00  0.00000000E+00
  0.00000000E+00  0.00000000E+00  0.00000000E+00
  0.00000000E+00  0.00000000E+00  0.00000000E+00
  0.00000000E+00  0.00000000E+00  0.00000000E+00
  0.00000000E+00  0.00000000E+00  0.00000000E+00
  0.00000000E+00  0.00000000E+00  0.00000000E+00
  0.00000000E+00  0.00000000E+00  0.00000000E+00
  0.00000000E+00  0.00000000E+00  0.00000000E+00
  0.00000000E+00  0.00000000E+00  0.00000000E+00
  0.00000000E+00  0.00000000E+00  0.00000000E+00
  0.00000000E+00  0.00000000E+00  0.00000000E+00
  0.00000000E+00  0.00000000E+00  0.00000000E+00
  0.00000000E+00  0.00000000E+00  0.00000000E+00
  0.00000000E+00  0.00000000E+00  0.00000000E+00
  0.00000000E+00  0.00000000E+00  0.00000000E+00
  0.00000000E+00  0.00000000E+00  0.00000000E+00
  0.00000000E+00  0.00000000E+00  0.00000000E+00
  0.00000000E+00  0.00000000E+00  0.00000000E+00
  0.00000000E+00  0.00000000E+00  0.00000000E+00
  0.00000000E+00  0.00000000E+00  0.00000000E+00
  0.00000000E+00  0.00000000E+00  0.00000000E+00
  0.00000000E+00  0.00000000E+00  0.00000000E+00
