In O                                    
   1.00000000000000     
    14.4942117030500004    0.0000000000000000    0.0000000000000000
    -7.2471058515250002   12.5523555426710001    0.0000000000000000
     0.0000000000000000    0.0000000000000000   26.8344742987830003
   In   O 
    48    71
Selective dynamics
Direct
  0.2802498821566886  0.0160450871272673  0.1066117288832871   T   T   T
  0.2410877576437969  0.2311500926884307  0.1027399902066790   T   T   T
  0.7355249919295588  0.2194357010312658  0.1059787855863519   T   T   T
  0.9900257289220349  0.2583245136868939  0.1022477825608519   T   T   T
  0.2681034950253789  0.5096792420879339  0.1023755483789728   T   T   T
  0.4843417895662796  0.7637176041429896  0.1044188413435663   T   T   T
  0.9960007707601264  0.0070612634971923  0.1120666642122004   T   T   T
  0.0105738565568956  0.5041840259143058  0.1112306346057110   T   T   T
  0.4924399332069243  0.4883423976055425  0.1118153228234320   T   T   T
  0.4999360116825926  0.0001611314472640  0.0982583813197309   T   T   T
  0.5130962510824588  0.2386230585867253  0.1117426401075647   T   T   T
  0.7214786742791972  0.4871919711249788  0.1198954224245128   T   T   T
  0.0130030976628248  0.7337414854796620  0.1210752598113558   T   T   T
  0.2604707593505324  0.7743945903693970  0.1094551688517171   T   T   T
  0.7666745737376104  0.7803968511422994  0.1214768198881657   T   T   T
  0.7248535963738263  0.9865031043368404  0.1107685832299836   T   T   T
  0.1551415022341871  0.0920893348791481  0.2123859463549493   T   T   T
  0.9375538238251977  0.3450228792635102  0.2114875063009407   T   T   T
  0.4070982110528689  0.5625534881227310  0.2120119495799955   T   T   T
  0.9006380457776402  0.5569399937965755  0.2152578311697297   T   T   T
  0.6577662338308699  0.5995083629368452  0.2132142383975193   T   T   T
  0.9431569802847619  0.8432491190900890  0.2153521899535278   T   T   T
  0.6670882348300111  0.3338377483466317  0.2199601689603199   T   T   T
  0.1683213019936645  0.8333331029778464  0.2211539453590063   T   T   T
  0.6635115218748169  0.8333197354319779  0.2208865220900762   T   T   T
  0.1659326610365000  0.3325675051951009  0.2202990224932293   T   T   T
  0.6772657555038464  0.0693278383193174  0.2254194918681591   T   T   T
  0.4329686988696153  0.1082373353311326  0.2262644772360431   T   T   T
  0.9255668373634194  0.1035499473990384  0.2289371400434348   T   T   T
  0.3959743376900917  0.3215070974923364  0.2288961005678374   T   T   T
  0.1776639600548151  0.5738005608977730  0.2282004812209593   T   T   T
  0.3909600018510275  0.8223363929627041  0.2214295579150871   T   T   T
  0.6133698426965353  0.1823981642788510  0.3202247303471140   T   T   T
  0.8205645303107900  0.4284942421961802  0.3298732631979107   T   T   T
  0.6131258213353235  0.6769375109514613  0.3257921145348206   T   T   T
  0.0736105641357696  0.8932073613500364  0.3297285136914638   T   T   T
  0.5653259790453902  0.8955076456929376  0.3209048919629680   T   T   T
  0.3232686117155836  0.9319718848543204  0.3234045328301889   T   T   T
  0.3228497464667583  0.1626473894050093  0.3295750125245647   T   T   T
  0.8401715974257655  0.1785740097703510  0.3287608648869877   T   T   T
  0.3324051513823889  0.6589452125472945  0.3300113174757016   T   T   T
  0.8358004048880261  0.6667070340429575  0.3409307662018861   T   T   T
  0.0644302482825765  0.1559009801330049  0.3385596258006061   T   T   T
  0.3416314689714071  0.4080180547767114  0.3378441242819079   T   T   T
  0.0894223226475006  0.4335182218798295  0.3380288834242364   T   T   T
  0.5981851170376302  0.4472891364448941  0.3342613970494170   T   T   T
  0.0539473943000601  0.6509117372090358  0.3344883397491927   T   T   T
  0.8491922326856809  0.9025225062609152  0.3356492318460624   T   T   T
  0.5852859825160621  0.1616311181729344  0.0696055403106186   T   T   T
  0.3376946725475776  0.9248496765244099  0.0689283261805755   T   T   T
  0.5764778269693807  0.9143785276154475  0.0685215879492063   T   T   T
  0.8294206842561636  0.1475701891417600  0.0830355865390828   T   T   T
  0.3524516594637177  0.1819014259068226  0.0838163891902113   T   T   T
  0.3180646198898600  0.6697971127420388  0.0823692965673715   T   T   T
  0.5664667009393938  0.4023809543769445  0.0887342295658087   T   T   T
  0.0977562069084499  0.6646850351325710  0.0881329598064511   T   T   T
  0.8355639690825072  0.9341359707129797  0.0892436141422550   T   T   T
  0.0734756818598328  0.1726482842435786  0.0872197890100281   T   T   T
  0.3264730194448262  0.4000823218258986  0.0876590214891593   T   T   T
  0.0992512714306670  0.4264278779228619  0.0873388921340137   T   T   T
  0.8889172657808402  0.5616267501785899  0.1208165019111220   T   T   T
  0.6731587457037023  0.6121414692292220  0.1230349679621270   T   T   T
  0.9384988464954631  0.8272812767215427  0.1227484454774128   T   T   T
  0.1593344456858432  0.0557749892710291  0.1304951075084801   T   T   T
  0.8963190162276859  0.3404372370937523  0.1298293736055811   T   T   T
  0.4443024631975803  0.6036618625521157  0.1300604625613246   T   T   T
  0.6860001147221411  0.3247110924698546  0.1397495112835045   T   T   T
  0.6377074051195635  0.8142347812025434  0.1404795483236114   T   T   T
  0.1757272968068335  0.8614024145017893  0.1407584617074988   T   T   T
  0.4263829305763522  0.0762688106871323  0.1487997748051910   T   T   T
  0.6508514655506517  0.0724629031830446  0.1478924887627358   T   T   T
  0.4226733952251962  0.8494326693877241  0.1454907577108386   T   T   T
  0.0105369880837429  0.2505064152552592  0.1816166755551478   T   T   T
  0.2483339596209220  0.2586072371481052  0.1823371038006840   T   T   T
  0.2412689334653777  0.4902828325824302  0.1821760414150475   T   T   T
  0.9802636035467600  0.0057008296840877  0.1925114305647924   T   T   T
  0.4938211825989001  0.4746976911472203  0.1924043290682320   T   T   T
  0.0254700658395137  0.5197819912727439  0.1916844095169807   T   T   T
  0.5020202312132369  0.2740194225641019  0.1979763365640821   T   T   T
  0.2260644705111545  0.7275848845016668  0.1966255606619498   T   T   T
  0.7700303361088459  0.9961723315940958  0.1996728694379328   T   T   T
  0.7328057582393370  0.5063884490945370  0.2004025734685939   T   T   T
  0.9939762240233136  0.7251146628663463  0.2016578706553602   T   T   T
  0.7739092553461830  0.7701453255664674  0.2023466070789226   T   T   T
  0.6019187102669363  0.1616703618277455  0.2394554320731928   T   T   T
  0.5560692328200290  0.8997401746193106  0.2404097874715987   T   T   T
  0.3440945285155550  0.9384965507823040  0.2423780062318173   T   T   T
  0.8313745308520168  0.3925432109162443  0.2428148949627555   T   T   T
  0.5617783564345515  0.6688325957349335  0.2433459713142128   T   T   T
  0.1082869710323564  0.9382346327226969  0.2433250302648844   T   T   T
  0.3084689865583314  0.1470041056707601  0.2490165938847113   T   T   T
  0.8405924396437356  0.1930851598677705  0.2482494838783822   T   T   T
  0.3557712142784055  0.6643053030590238  0.2492166539392002   T   T   T
  0.0916703684330926  0.1764338098931688  0.2591295458054788   T   T   T
  0.0840883121229865  0.4064390282906416  0.2584478984057696   T   T   T
  0.3224226562102785  0.4151950972333296  0.2585643008163316   T   T   T
  0.6848648329049709  0.5919478915445211  0.2907828904670353   T   T   T
  0.9071989137846614  0.5889680180195640  0.2927071367911864   T   T   T
  0.9107977980136468  0.8186699896492868  0.2928449255986081   T   T   T
  0.6478824104288563  0.3433047266795981  0.3001279505108840   T   T   T
  0.1615242889330588  0.8059332693975279  0.3012465755787375   T   T   T
  0.6794373959029514  0.8457629095036197  0.3059011687843878   T   T   T
  0.8852753189180262  0.0592115592263127  0.3104736632658671   T   T   T
  0.4372787968343630  0.3285602602778113  0.3118807685421103   T   T   T
  0.1710067071304238  0.6087526545483470  0.3086613045010580   T   T   T
  0.6639779813042210  0.0609297899964503  0.3171080369528099   T   T   T
  0.4454087806411664  0.1062066982785836  0.3195533620181621   T   T   T
  0.3996981979343275  0.8373818268926598  0.3343338504745006   T   T   T
  0.2336706504888895  0.2399532110175215  0.3532750613149247   T   T   T
  0.0048093417571522  0.2641750357594290  0.3532539807001669   T   T   T
  0.2577689097372158  0.4923577486768380  0.3540468762202167   T   T   T
  0.2358043020574030  0.0024717156050116  0.3523887113332833   T   T   T
  0.7677738535254051  0.2666571173618095  0.3524372301427334   T   T   T
  0.9811569931088897  0.4853093453217241  0.3581777053579245   T   T   T
  0.5038600303463383  0.5252783587943384  0.3557340908113815   T   T   T
  0.0148833428191892  0.9960323935538966  0.3583956788605320   T   T   T
  0.7471831311684127  0.5058374458819941  0.3712298175874835   T   T   T
  0.7575736348897166  0.7509999408312851  0.3702498106099341   T   T   T
  0.9962300408866369  0.7433221218487915  0.3708433048067974   T   T   T
 
  0.00000000E+00  0.00000000E+00  0.00000000E+00
  0.00000000E+00  0.00000000E+00  0.00000000E+00
  0.00000000E+00  0.00000000E+00  0.00000000E+00
  0.00000000E+00  0.00000000E+00  0.00000000E+00
  0.00000000E+00  0.00000000E+00  0.00000000E+00
  0.00000000E+00  0.00000000E+00  0.00000000E+00
  0.00000000E+00  0.00000000E+00  0.00000000E+00
  0.00000000E+00  0.00000000E+00  0.00000000E+00
  0.00000000E+00  0.00000000E+00  0.00000000E+00
  0.00000000E+00  0.00000000E+00  0.00000000E+00
  0.00000000E+00  0.00000000E+00  0.00000000E+00
  0.00000000E+00  0.00000000E+00  0.00000000E+00
  0.00000000E+00  0.00000000E+00  0.00000000E+00
  0.00000000E+00  0.00000000E+00  0.00000000E+00
  0.00000000E+00  0.00000000E+00  0.00000000E+00
  0.00000000E+00  0.00000000E+00  0.00000000E+00
  0.00000000E+00  0.00000000E+00  0.00000000E+00
  0.00000000E+00  0.00000000E+00  0.00000000E+00
  0.00000000E+00  0.00000000E+00  0.00000000E+00
  0.00000000E+00  0.00000000E+00  0.00000000E+00
  0.00000000E+00  0.00000000E+00  0.00000000E+00
  0.00000000E+00  0.00000000E+00  0.00000000E+00
  0.00000000E+00  0.00000000E+00  0.00000000E+00
  0.00000000E+00  0.00000000E+00  0.00000000E+00
  0.00000000E+00  0.00000000E+00  0.00000000E+00
  0.00000000E+00  0.00000000E+00  0.00000000E+00
  0.00000000E+00  0.00000000E+00  0.00000000E+00
  0.00000000E+00  0.00000000E+00  0.00000000E+00
  0.00000000E+00  0.00000000E+00  0.00000000E+00
  0.00000000E+00  0.00000000E+00  0.00000000E+00
  0.00000000E+00  0.00000000E+00  0.00000000E+00
  0.00000000E+00  0.00000000E+00  0.00000000E+00
  0.00000000E+00  0.00000000E+00  0.00000000E+00
  0.00000000E+00  0.00000000E+00  0.00000000E+00
  0.00000000E+00  0.00000000E+00  0.00000000E+00
  0.00000000E+00  0.00000000E+00  0.00000000E+00
  0.00000000E+00  0.00000000E+00  0.00000000E+00
  0.00000000E+00  0.00000000E+00  0.00000000E+00
  0.00000000E+00  0.00000000E+00  0.00000000E+00
  0.00000000E+00  0.00000000E+00  0.00000000E+00
  0.00000000E+00  0.00000000E+00  0.00000000E+00
  0.00000000E+00  0.00000000E+00  0.00000000E+00
  0.00000000E+00  0.00000000E+00  0.00000000E+00
  0.00000000E+00  0.00000000E+00  0.00000000E+00
  0.00000000E+00  0.00000000E+00  0.00000000E+00
  0.00000000E+00  0.00000000E+00  0.00000000E+00
  0.00000000E+00  0.00000000E+00  0.00000000E+00
  0.00000000E+00  0.00000000E+00  0.00000000E+00
  0.00000000E+00  0.00000000E+00  0.00000000E+00
  0.00000000E+00  0.00000000E+00  0.00000000E+00
  0.00000000E+00  0.00000000E+00  0.00000000E+00
  0.00000000E+00  0.00000000E+00  0.00000000E+00
  0.00000000E+00  0.00000000E+00  0.00000000E+00
  0.00000000E+00  0.00000000E+00  0.00000000E+00
  0.00000000E+00  0.00000000E+00  0.00000000E+00
  0.00000000E+00  0.00000000E+00  0.00000000E+00
  0.00000000E+00  0.00000000E+00  0.00000000E+00
  0.00000000E+00  0.00000000E+00  0.00000000E+00
  0.00000000E+00  0.00000000E+00  0.00000000E+00
  0.00000000E+00  0.00000000E+00  0.00000000E+00
  0.00000000E+00  0.00000000E+00  0.00000000E+00
  0.00000000E+00  0.00000000E+00  0.00000000E+00
  0.00000000E+00  0.00000000E+00  0.00000000E+00
  0.00000000E+00  0.00000000E+00  0.00000000E+00
  0.00000000E+00  0.00000000E+00  0.00000000E+00
  0.00000000E+00  0.00000000E+00  0.00000000E+00
  0.00000000E+00  0.00000000E+00  0.00000000E+00
  0.00000000E+00  0.00000000E+00  0.00000000E+00
  0.00000000E+00  0.00000000E+00  0.00000000E+00
  0.00000000E+00  0.00000000E+00  0.00000000E+00
  0.00000000E+00  0.00000000E+00  0.00000000E+00
  0.00000000E+00  0.00000000E+00  0.00000000E+00
  0.00000000E+00  0.00000000E+00  0.00000000E+00
  0.00000000E+00  0.00000000E+00  0.00000000E+00
  0.00000000E+00  0.00000000E+00  0.00000000E+00
  0.00000000E+00  0.00000000E+00  0.00000000E+00
  0.00000000E+00  0.00000000E+00  0.00000000E+00
  0.00000000E+00  0.00000000E+00  0.00000000E+00
  0.00000000E+00  0.00000000E+00  0.00000000E+00
  0.00000000E+00  0.00000000E+00  0.00000000E+00
  0.00000000E+00  0.00000000E+00  0.00000000E+00
  0.00000000E+00  0.00000000E+00  0.00000000E+00
  0.00000000E+00  0.00000000E+00  0.00000000E+00
  0.00000000E+00  0.00000000E+00  0.00000000E+00
  0.00000000E+00  0.00000000E+00  0.00000000E+00
  0.00000000E+00  0.00000000E+00  0.00000000E+00
  0.00000000E+00  0.00000000E+00  0.00000000E+00
  0.00000000E+00  0.00000000E+00  0.00000000E+00
  0.00000000E+00  0.00000000E+00  0.00000000E+00
  0.00000000E+00  0.00000000E+00  0.00000000E+00
  0.00000000E+00  0.00000000E+00  0.00000000E+00
  0.00000000E+00  0.00000000E+00  0.00000000E+00
  0.00000000E+00  0.00000000E+00  0.00000000E+00
  0.00000000E+00  0.00000000E+00  0.00000000E+00
  0.00000000E+00  0.00000000E+00  0.00000000E+00
  0.00000000E+00  0.00000000E+00  0.00000000E+00
  0.00000000E+00  0.00000000E+00  0.00000000E+00
  0.00000000E+00  0.00000000E+00  0.00000000E+00
  0.00000000E+00  0.00000000E+00  0.00000000E+00
  0.00000000E+00  0.00000000E+00  0.00000000E+00
  0.00000000E+00  0.00000000E+00  0.00000000E+00
  0.00000000E+00  0.00000000E+00  0.00000000E+00
  0.00000000E+00  0.00000000E+00  0.00000000E+00
  0.00000000E+00  0.00000000E+00  0.00000000E+00
  0.00000000E+00  0.00000000E+00  0.00000000E+00
  0.00000000E+00  0.00000000E+00  0.00000000E+00
  0.00000000E+00  0.00000000E+00  0.00000000E+00
  0.00000000E+00  0.00000000E+00  0.00000000E+00
  0.00000000E+00  0.00000000E+00  0.00000000E+00
  0.00000000E+00  0.00000000E+00  0.00000000E+00
  0.00000000E+00  0.00000000E+00  0.00000000E+00
  0.00000000E+00  0.00000000E+00  0.00000000E+00
  0.00000000E+00  0.00000000E+00  0.00000000E+00
  0.00000000E+00  0.00000000E+00  0.00000000E+00
  0.00000000E+00  0.00000000E+00  0.00000000E+00
  0.00000000E+00  0.00000000E+00  0.00000000E+00
  0.00000000E+00  0.00000000E+00  0.00000000E+00
  0.00000000E+00  0.00000000E+00  0.00000000E+00
  0.00000000E+00  0.00000000E+00  0.00000000E+00
