In O                                    
   1.00000000000000     
    14.4942117030500004    0.0000000000000000    0.0000000000000000
    -7.2471058515250002   12.5523555426710001    0.0000000000000000
     0.0000000000000000    0.0000000000000000   26.8344742987830003
   In   O 
    48    71
Selective dynamics
Direct
  0.2802594150356605  0.0157510868783452  0.1058351291007994   T   T   T
  0.2415799675325130  0.2318176455581271  0.1024901849959079   T   T   T
  0.7356544198091893  0.2199476326650061  0.1058007980307984   T   T   T
  0.9901554880148135  0.2586654101274003  0.1026570005246502   T   T   T
  0.2684043424363978  0.5099071696284021  0.1027412849216286   T   T   T
  0.4842235191980581  0.7644698031061422  0.1063731475094463   T   T   T
  0.9956245941289714  0.0071047050793854  0.1118292674334450   T   T   T
  0.0112236224842610  0.5038486209352866  0.1119861331296130   T   T   T
  0.4930360592275040  0.4889970967330472  0.1119801881262416   T   T   T
  0.4997383833121486  0.9997820459942069  0.0986922074881407   T   T   T
  0.5132041920489709  0.2387701706556659  0.1108446520953644   T   T   T
  0.7207060334570518  0.4874362278014163  0.1204331878220986   T   T   T
  0.0125793225566201  0.7332297936273957  0.1204743790631556   T   T   T
  0.2612847578852321  0.7745249152171395  0.1108625091267586   T   T   T
  0.7665395362902391  0.7791576650102736  0.1203628924632184   T   T   T
  0.7253752526010050  0.9864284184923707  0.1101175257342478   T   T   T
  0.1556026906145274  0.0914202471564938  0.2113103952655398   T   T   T
  0.9364405225392020  0.3443635974896195  0.2123610421668332   T   T   T
  0.4085075819960934  0.5632939286627756  0.2122704398627436   T   T   T
  0.8998845789231364  0.5565978464224324  0.2148950064685919   T   T   T
  0.6572539438661160  0.6001829398357191  0.2151984905940391   T   T   T
  0.9428339156434257  0.8426653141300890  0.2148868567125343   T   T   T
  0.6661339905528676  0.3332372141215457  0.2200023059140167   T   T   T
  0.1668300980259413  0.8331055287388293  0.2199840761574063   T   T   T
  0.6680645247668113  0.8341501059802825  0.2204713517964742   T   T   T
  0.1674646843283019  0.3333534807791860  0.2206263806047462   T   T   T
  0.6738927848520916  0.0657116770225367  0.2239700672544877   T   T   T
  0.4322566543417803  0.1090798871400592  0.2248189047049883   T   T   T
  0.9268905124481037  0.1060203085517041  0.2289252664879025   T   T   T
  0.3961239296284026  0.3217056597804491  0.2289948994986518   T   T   T
  0.1790186719336860  0.5747198167763253  0.2283176859088544   T   T   T
  0.3904948578392141  0.8237053318654003  0.2250708537091387   T   T   T
  0.6089605392490244  0.1808246400261346  0.3205768129692273   T   T   T
  0.8194758111753029  0.4282702740939223  0.3292196665780726   T   T   T
  0.6083878234999784  0.6798125181626886  0.3295595949744731   T   T   T
  0.0719567226682761  0.8885732377837877  0.3287530365630326   T   T   T
  0.5662115770301677  0.8869045539872497  0.3203731230040963   T   T   T
  0.3200113650047003  0.9321411012822381  0.3205598955635086   T   T   T
  0.3251114022214861  0.1619519499209784  0.3293538601035148   T   T   T
  0.8228220110361237  0.1680828758852436  0.3287310079005327   T   T   T
  0.3399053393745062  0.6623776707108726  0.3290710672302826   T   T   T
  0.8327395377827714  0.6659691900772076  0.3410724551010477   T   T   T
  0.0729089184302773  0.1480761010301359  0.3380743738644216   T   T   T
  0.3447932020550933  0.4093412047507903  0.3385138874150420   T   T   T
  0.0980606153410520  0.4459811302880232  0.3379077907035276   T   T   T
  0.5977841086901593  0.4473672010556846  0.3347521172600541   T   T   T
  0.0522971185203652  0.6510141270205680  0.3345980430031809   T   T   T
  0.8491961256507072  0.9009809449659338  0.3355290433933663   T   T   T
  0.5856686592089722  0.1617126693643353  0.0692744839936981   T   T   T
  0.3381366906541839  0.9238478552153522  0.0691821912641228   T   T   T
  0.5755321125936822  0.9136656324453175  0.0690764983143876   T   T   T
  0.8298012693713605  0.1479970171012919  0.0831319644977456   T   T   T
  0.3519440900520073  0.1817330114279579  0.0831722392390978   T   T   T
  0.3183612937264928  0.6702565378619653  0.0834234444323912   T   T   T
  0.5657712461034929  0.4017150239599603  0.0888304531309427   T   T   T
  0.0982672000300042  0.6639428169272852  0.0889160324258468   T   T   T
  0.8357941503290212  0.9339394588021552  0.0885068230899272   T   T   T
  0.0736075054723480  0.1732589641108722  0.0877252350003385   T   T   T
  0.3270874985329865  0.4008642344698573  0.0876391120880256   T   T   T
  0.0994686532118412  0.4262845787826393  0.0876095925153992   T   T   T
  0.8886123715245524  0.5607034541595473  0.1219713663977705   T   T   T
  0.6724118529524959  0.6114715638522518  0.1215654914631601   T   T   T
  0.9388870970724504  0.8274545162724175  0.1218593095272739   T   T   T
  0.1594122851133998  0.0556889946487891  0.1299896862553713   T   T   T
  0.8962424938630120  0.3400685301499611  0.1305290974853480   T   T   T
  0.4441494255804018  0.6038511008194938  0.1307918225750043   T   T   T
  0.6859902155189816  0.3247887826922815  0.1400326398558296   T   T   T
  0.6394600637264359  0.8150010770532536  0.1403214051079232   T   T   T
  0.1751434369638789  0.8611958757273029  0.1399810492359973   T   T   T
  0.4270429048146134  0.0775054552089578  0.1476788036358840   T   T   T
  0.6504181459021235  0.0722586267842454  0.1471441812776079   T   T   T
  0.4225325022063918  0.8498818971589963  0.1478622714524375   T   T   T
  0.0106106943687990  0.2517945830989949  0.1826408165778975   T   T   T
  0.2485729634273798  0.2589864684491726  0.1822440670021487   T   T   T
  0.2402801221399016  0.4892151642656629  0.1825273964927145   T   T   T
  0.9800253856978345  0.0061066690696390  0.1925435915207595   T   T   T
  0.4946432105236894  0.4750052481767708  0.1926531165303787   T   T   T
  0.0257240811971651  0.5186880747072548  0.1927895264003050   T   T   T
  0.5017321109898606  0.2739678364135325  0.1976378055302858   T   T   T
  0.2260940571708262  0.7280775947804984  0.1975217221494193   T   T   T
  0.7730739412338794  0.9987534257178270  0.1988520143983961   T   T   T
  0.7314138737077488  0.5063570333359075  0.2010618945063692   T   T   T
  0.9936604999982679  0.7246435882590436  0.2010981352602160   T   T   T
  0.7748637777652857  0.7683736100017929  0.2009643696026432   T   T   T
  0.6005754835484060  0.1594624045512668  0.2399989024427813   T   T   T
  0.5584097932880128  0.8981653621792830  0.2398898137023381   T   T   T
  0.3401983878197964  0.9414526211813524  0.2400327262685338   T   T   T
  0.8303273245144790  0.3915340809232741  0.2431934532041969   T   T   T
  0.5625399518361780  0.6704868019699770  0.2438834819755147   T   T   T
  0.1073994078197958  0.9380037258486640  0.2428056809356822   T   T   T
  0.3076944301559800  0.1463834691421114  0.2487498322063149   T   T   T
  0.8364985451916358  0.1898633227008318  0.2490379849640582   T   T   T
  0.3539255038418401  0.6616156475787740  0.2486035390756603   T   T   T
  0.0922158494357517  0.1755302478165491  0.2593077491182159   T   T   T
  0.0829363488327201  0.4036762113338613  0.2606319207758570   T   T   T
  0.3228387362038657  0.4154693091589887  0.2591866889359301   T   T   T
  0.6827917138581502  0.5935970981929630  0.2925814503801406   T   T   T
  0.9063096276712935  0.5880893202750099  0.2924950407076258   T   T   T
  0.9101669570894373  0.8164050967347262  0.2923340966925974   T   T   T
  0.6468371159930311  0.3421745576570659  0.3002909946591525   T   T   T
  0.1581067019715605  0.8043821139546063  0.3002446164170834   T   T   T
  0.6997516747020207  0.8600710654456035  0.3007033046246226   T   T   T
  0.9016886837707258  0.0801797346499429  0.3194688570797979   T   T   T
  0.4369476454708331  0.3264876320645012  0.3107558873581576   T   T   T
  0.1744115007576007  0.6121755100634504  0.3100980253629806   T   T   T
  0.6541753748224568  0.0539948263776348  0.3206699508474410   T   T   T
  0.4428899828022779  0.1046504193170636  0.3202004684936917   T   T   T
  0.3942863633977146  0.8386793520136665  0.3199899906634368   T   T   T
  0.2366141447779856  0.2403331327940267  0.3552514920344126   T   T   T
  0.2627236974279978  0.4966469538572176  0.3544500999913504   T   T   T
  0.2337843145924051  0.0011436539593475  0.3518057166782537   T   T   T
  0.7647484514593067  0.2654258884390806  0.3532642733120398   T   T   T
  0.5002629094984178  0.7337170751951982  0.3520716921840532   T   T   T
  0.9805574419554395  0.4844371041177028  0.3583895342266781   T   T   T
  0.5046274122674345  0.5194107879414748  0.3579865070824020   T   T   T
  0.0139775433528412  0.9894011407288467  0.3579158477918972   T   T   T
  0.7475634821418863  0.5048466723257583  0.3711756662264282   T   T   T
  0.7565025730938415  0.7513445986599655  0.3713033801681073   T   T   T
  0.9938076174428322  0.7412691238041768  0.3713455216717123   T   T   T
 
  0.00000000E+00  0.00000000E+00  0.00000000E+00
  0.00000000E+00  0.00000000E+00  0.00000000E+00
  0.00000000E+00  0.00000000E+00  0.00000000E+00
  0.00000000E+00  0.00000000E+00  0.00000000E+00
  0.00000000E+00  0.00000000E+00  0.00000000E+00
  0.00000000E+00  0.00000000E+00  0.00000000E+00
  0.00000000E+00  0.00000000E+00  0.00000000E+00
  0.00000000E+00  0.00000000E+00  0.00000000E+00
  0.00000000E+00  0.00000000E+00  0.00000000E+00
  0.00000000E+00  0.00000000E+00  0.00000000E+00
  0.00000000E+00  0.00000000E+00  0.00000000E+00
  0.00000000E+00  0.00000000E+00  0.00000000E+00
  0.00000000E+00  0.00000000E+00  0.00000000E+00
  0.00000000E+00  0.00000000E+00  0.00000000E+00
  0.00000000E+00  0.00000000E+00  0.00000000E+00
  0.00000000E+00  0.00000000E+00  0.00000000E+00
  0.00000000E+00  0.00000000E+00  0.00000000E+00
  0.00000000E+00  0.00000000E+00  0.00000000E+00
  0.00000000E+00  0.00000000E+00  0.00000000E+00
  0.00000000E+00  0.00000000E+00  0.00000000E+00
  0.00000000E+00  0.00000000E+00  0.00000000E+00
  0.00000000E+00  0.00000000E+00  0.00000000E+00
  0.00000000E+00  0.00000000E+00  0.00000000E+00
  0.00000000E+00  0.00000000E+00  0.00000000E+00
  0.00000000E+00  0.00000000E+00  0.00000000E+00
  0.00000000E+00  0.00000000E+00  0.00000000E+00
  0.00000000E+00  0.00000000E+00  0.00000000E+00
  0.00000000E+00  0.00000000E+00  0.00000000E+00
  0.00000000E+00  0.00000000E+00  0.00000000E+00
  0.00000000E+00  0.00000000E+00  0.00000000E+00
  0.00000000E+00  0.00000000E+00  0.00000000E+00
  0.00000000E+00  0.00000000E+00  0.00000000E+00
  0.00000000E+00  0.00000000E+00  0.00000000E+00
  0.00000000E+00  0.00000000E+00  0.00000000E+00
  0.00000000E+00  0.00000000E+00  0.00000000E+00
  0.00000000E+00  0.00000000E+00  0.00000000E+00
  0.00000000E+00  0.00000000E+00  0.00000000E+00
  0.00000000E+00  0.00000000E+00  0.00000000E+00
  0.00000000E+00  0.00000000E+00  0.00000000E+00
  0.00000000E+00  0.00000000E+00  0.00000000E+00
  0.00000000E+00  0.00000000E+00  0.00000000E+00
  0.00000000E+00  0.00000000E+00  0.00000000E+00
  0.00000000E+00  0.00000000E+00  0.00000000E+00
  0.00000000E+00  0.00000000E+00  0.00000000E+00
  0.00000000E+00  0.00000000E+00  0.00000000E+00
  0.00000000E+00  0.00000000E+00  0.00000000E+00
  0.00000000E+00  0.00000000E+00  0.00000000E+00
  0.00000000E+00  0.00000000E+00  0.00000000E+00
  0.00000000E+00  0.00000000E+00  0.00000000E+00
  0.00000000E+00  0.00000000E+00  0.00000000E+00
  0.00000000E+00  0.00000000E+00  0.00000000E+00
  0.00000000E+00  0.00000000E+00  0.00000000E+00
  0.00000000E+00  0.00000000E+00  0.00000000E+00
  0.00000000E+00  0.00000000E+00  0.00000000E+00
  0.00000000E+00  0.00000000E+00  0.00000000E+00
  0.00000000E+00  0.00000000E+00  0.00000000E+00
  0.00000000E+00  0.00000000E+00  0.00000000E+00
  0.00000000E+00  0.00000000E+00  0.00000000E+00
  0.00000000E+00  0.00000000E+00  0.00000000E+00
  0.00000000E+00  0.00000000E+00  0.00000000E+00
  0.00000000E+00  0.00000000E+00  0.00000000E+00
  0.00000000E+00  0.00000000E+00  0.00000000E+00
  0.00000000E+00  0.00000000E+00  0.00000000E+00
  0.00000000E+00  0.00000000E+00  0.00000000E+00
  0.00000000E+00  0.00000000E+00  0.00000000E+00
  0.00000000E+00  0.00000000E+00  0.00000000E+00
  0.00000000E+00  0.00000000E+00  0.00000000E+00
  0.00000000E+00  0.00000000E+00  0.00000000E+00
  0.00000000E+00  0.00000000E+00  0.00000000E+00
  0.00000000E+00  0.00000000E+00  0.00000000E+00
  0.00000000E+00  0.00000000E+00  0.00000000E+00
  0.00000000E+00  0.00000000E+00  0.00000000E+00
  0.00000000E+00  0.00000000E+00  0.00000000E+00
  0.00000000E+00  0.00000000E+00  0.00000000E+00
  0.00000000E+00  0.00000000E+00  0.00000000E+00
  0.00000000E+00  0.00000000E+00  0.00000000E+00
  0.00000000E+00  0.00000000E+00  0.00000000E+00
  0.00000000E+00  0.00000000E+00  0.00000000E+00
  0.00000000E+00  0.00000000E+00  0.00000000E+00
  0.00000000E+00  0.00000000E+00  0.00000000E+00
  0.00000000E+00  0.00000000E+00  0.00000000E+00
  0.00000000E+00  0.00000000E+00  0.00000000E+00
  0.00000000E+00  0.00000000E+00  0.00000000E+00
  0.00000000E+00  0.00000000E+00  0.00000000E+00
  0.00000000E+00  0.00000000E+00  0.00000000E+00
  0.00000000E+00  0.00000000E+00  0.00000000E+00
  0.00000000E+00  0.00000000E+00  0.00000000E+00
  0.00000000E+00  0.00000000E+00  0.00000000E+00
  0.00000000E+00  0.00000000E+00  0.00000000E+00
  0.00000000E+00  0.00000000E+00  0.00000000E+00
  0.00000000E+00  0.00000000E+00  0.00000000E+00
  0.00000000E+00  0.00000000E+00  0.00000000E+00
  0.00000000E+00  0.00000000E+00  0.00000000E+00
  0.00000000E+00  0.00000000E+00  0.00000000E+00
  0.00000000E+00  0.00000000E+00  0.00000000E+00
  0.00000000E+00  0.00000000E+00  0.00000000E+00
  0.00000000E+00  0.00000000E+00  0.00000000E+00
  0.00000000E+00  0.00000000E+00  0.00000000E+00
  0.00000000E+00  0.00000000E+00  0.00000000E+00
  0.00000000E+00  0.00000000E+00  0.00000000E+00
  0.00000000E+00  0.00000000E+00  0.00000000E+00
  0.00000000E+00  0.00000000E+00  0.00000000E+00
  0.00000000E+00  0.00000000E+00  0.00000000E+00
  0.00000000E+00  0.00000000E+00  0.00000000E+00
  0.00000000E+00  0.00000000E+00  0.00000000E+00
  0.00000000E+00  0.00000000E+00  0.00000000E+00
  0.00000000E+00  0.00000000E+00  0.00000000E+00
  0.00000000E+00  0.00000000E+00  0.00000000E+00
  0.00000000E+00  0.00000000E+00  0.00000000E+00
  0.00000000E+00  0.00000000E+00  0.00000000E+00
  0.00000000E+00  0.00000000E+00  0.00000000E+00
  0.00000000E+00  0.00000000E+00  0.00000000E+00
  0.00000000E+00  0.00000000E+00  0.00000000E+00
  0.00000000E+00  0.00000000E+00  0.00000000E+00
  0.00000000E+00  0.00000000E+00  0.00000000E+00
  0.00000000E+00  0.00000000E+00  0.00000000E+00
  0.00000000E+00  0.00000000E+00  0.00000000E+00
  0.00000000E+00  0.00000000E+00  0.00000000E+00
  0.00000000E+00  0.00000000E+00  0.00000000E+00
