In O                                    
   1.00000000000000     
    14.4942117030500004    0.0000000000000000    0.0000000000000000
    -7.2471058515250002   12.5523555426710001    0.0000000000000000
     0.0000000000000000    0.0000000000000000   26.8344742987830003
   In   O 
    48    71
Selective dynamics
Direct
  0.2804573522803153  0.0158375344778960  0.1065281420447945   T   T   T
  0.2415920517679808  0.2319049138633034  0.1013408847722772   T   T   T
  0.7354159003699152  0.2198421398606385  0.1068325588392369   T   T   T
  0.9899100616717504  0.2585782907569367  0.1025539705878273   T   T   T
  0.2684164249069383  0.5097460073234643  0.1014515625363899   T   T   T
  0.4841609905464708  0.7644873779018937  0.1067945639507002   T   T   T
  0.9957514057226078  0.0081160919975147  0.1115727529093036   T   T   T
  0.0114024706682159  0.5037458336457306  0.1117397194602248   T   T   T
  0.4917065933265121  0.4876358674126990  0.1107422356534045   T   T   T
  0.5000648591362449  0.0000797675024558  0.1000182970486776   T   T   T
  0.5129907793481010  0.2385622704438575  0.1119893624043442   T   T   T
  0.7209919281089725  0.4867563376594362  0.1208040939574033   T   T   T
  0.0131646607957521  0.7333349529297237  0.1202212469237551   T   T   T
  0.2617634954908894  0.7748856552608459  0.1103869054274895   T   T   T
  0.7664833047387987  0.7797867050413885  0.1209583007412434   T   T   T
  0.7256953086016011  0.9873233999226443  0.1111646218054787   T   T   T
  0.1563688583883192  0.0956554741540145  0.2103580526125484   T   T   T
  0.9370042667077740  0.3448325735514928  0.2124809687798788   T   T   T
  0.4076335959993571  0.5619539271340912  0.2112994867133082   T   T   T
  0.9004001855478734  0.5572515236969338  0.2144194443835872   T   T   T
  0.6541498462242501  0.5990650234557293  0.2121554297160770   T   T   T
  0.9428939458622025  0.8425351510072758  0.2134371075659871   T   T   T
  0.6664688464724620  0.3336658688874081  0.2212624857019989   T   T   T
  0.1665461833980615  0.8319301604268716  0.2203037877077563   T   T   T
  0.6661341972350954  0.8339652792332615  0.2206825511090429   T   T   T
  0.1664646734420785  0.3325986144609132  0.2200543574456404   T   T   T
  0.6765980328796459  0.0674358781754876  0.2256953560487176   T   T   T
  0.4317869081431240  0.1085738702057526  0.2265643941888271   T   T   T
  0.9257352412365591  0.1044041326649960  0.2288485572528742   T   T   T
  0.3953099905838116  0.3215970216060455  0.2283676990666805   T   T   T
  0.1803186858083592  0.5717981532420566  0.2268386323788363   T   T   T
  0.3902064830019896  0.8232569308764539  0.2263016323911344   T   T   T
  0.6128802583524404  0.1785678998274918  0.3210359019823628   T   T   T
  0.8195493771107891  0.4258833862898399  0.3304038507221847   T   T   T
  0.6035449413539169  0.6778879021680666  0.3284485487508206   T   T   T
  0.0839318530729543  0.9170017165087074  0.3215488837736373   T   T   T
  0.5670237385892420  0.8880986824527497  0.3210901375729733   T   T   T
  0.3224938892008566  0.9338542256576474  0.3233513171040840   T   T   T
  0.3258306821263233  0.1662304140856108  0.3295557514622445   T   T   T
  0.8393389521160728  0.1763305295961004  0.3296193656826176   T   T   T
  0.3404675041277301  0.6584118656255029  0.3286555225995187   T   T   T
  0.8188284833549275  0.6593054345460843  0.3320841167021911   T   T   T
  0.0658694862209757  0.1595759887647645  0.3385203372627998   T   T   T
  0.3429974204405255  0.4080061759448697  0.3385972510105404   T   T   T
  0.0941201306060435  0.4313762522704820  0.3382932476587825   T   T   T
  0.5946629293122925  0.4438135144401869  0.3351917839066090   T   T   T
  0.0600780832666246  0.6416366275291026  0.3282233330073296   T   T   T
  0.8488104146091686  0.9015455695654140  0.3341573245112741   T   T   T
  0.5852159263763923  0.1618361016000733  0.0706113774896195   T   T   T
  0.3389137981125430  0.9246582275589361  0.0698334028063883   T   T   T
  0.5756938140255841  0.9142030933436658  0.0703445620791712   T   T   T
  0.8294015231552549  0.1483923457240053  0.0834679006924617   T   T   T
  0.3524602801849142  0.1815228026829558  0.0836842831899745   T   T   T
  0.3186628852068409  0.6707232107680525  0.0833651379625024   T   T   T
  0.5666611914673751  0.4018088115598388  0.0889292804547352   T   T   T
  0.0986270337455295  0.6641046737919964  0.0887954210857771   T   T   T
  0.8357138900731158  0.9339074768459810  0.0888872319411504   T   T   T
  0.0737390673227267  0.1734090841512241  0.0871199429609675   T   T   T
  0.3266654723652707  0.4005883764234710  0.0861403226744955   T   T   T
  0.0990422841288208  0.4261341775933687  0.0872553694064067   T   T   T
  0.8890144136835474  0.5615561215469853  0.1225613509078443   T   T   T
  0.6727067146159058  0.6116945222876922  0.1231122745238267   T   T   T
  0.9387831279101704  0.8269899543169075  0.1232291754507813   T   T   T
  0.1591438788930546  0.0557052566897269  0.1298461821272525   T   T   T
  0.8960666634414878  0.3406983531389969  0.1312052266604695   T   T   T
  0.4443181151429272  0.6033404760461565  0.1297356208770779   T   T   T
  0.6864622684078014  0.3252631178292233  0.1412959495370671   T   T   T
  0.6392278873739627  0.8140605948626387  0.1407128685714767   T   T   T
  0.1750447255553169  0.8605563743672988  0.1404326024506872   T   T   T
  0.4256940245475818  0.0762138698296511  0.1494293728991707   T   T   T
  0.6506477564997226  0.0729777905402500  0.1484938575534613   T   T   T
  0.4210398910200226  0.8485739065714029  0.1488494185544411   T   T   T
  0.0101467669259634  0.2505311249118520  0.1820910528848216   T   T   T
  0.2493999659881752  0.2604687178295677  0.1811235735018073   T   T   T
  0.2409332228442054  0.4881176078197953  0.1811448979932706   T   T   T
  0.9807234662521367  0.0055124288898796  0.1926858915418634   T   T   T
  0.4925398905089722  0.4732265105627249  0.1913557841516820   T   T   T
  0.0258089536102943  0.5198721792856702  0.1926568062043401   T   T   T
  0.5018883883962175  0.2737480927128644  0.1985412035613408   T   T   T
  0.2248260839309921  0.7275681504976319  0.1998518651427474   T   T   T
  0.7720377142525905  0.9981004717259836  0.1982847194126478   T   T   T
  0.7326418588862964  0.5072463019141793  0.2018370376273921   T   T   T
  0.9948457925812235  0.7253620202610946  0.2019980304487063   T   T   T
  0.7754059313026858  0.7688659852957969  0.2025394764735253   T   T   T
  0.6014726698216819  0.1603200731416408  0.2404613134106057   T   T   T
  0.5582908464295642  0.8990770501429068  0.2407247080537331   T   T   T
  0.3342751227009160  0.9384545357385647  0.2427886321560209   T   T   T
  0.8333449777385553  0.3966341088254879  0.2455216141047885   T   T   T
  0.5610371851244409  0.6689156794679576  0.2428377597971689   T   T   T
  0.1097329908480162  0.9401856321432689  0.2413667150416146   T   T   T
  0.3063930526814218  0.1465137716460490  0.2491755759765226   T   T   T
  0.8387938108671307  0.1930262776153455  0.2492563686321532   T   T   T
  0.3553982966889748  0.6610316131084133  0.2480878110437814   T   T   T
  0.0930831568704136  0.1769553070724399  0.2590436564525973   T   T   T
  0.0843809350403788  0.4055524734172522  0.2588915894370274   T   T   T
  0.3223704697587166  0.4152936367916453  0.2590163973250768   T   T   T
  0.6742907632408048  0.5872008755632692  0.2900601455225171   T   T   T
  0.9108011176598154  0.5965912526705992  0.2949808490615382   T   T   T
  0.9191096060732775  0.8155846400630296  0.2949601129271002   T   T   T
  0.6471679472932834  0.3412360017724794  0.3018519636530570   T   T   T
  0.1443165552424404  0.8046543832067243  0.3101843507734614   T   T   T
  0.6944169228511115  0.8513976153948875  0.3010957866686965   T   T   T
  0.8899610632948125  0.0624032038819280  0.3107143342820251   T   T   T
  0.4369634078248765  0.3273218049585083  0.3101648979776996   T   T   T
  0.1780214879255055  0.6072051455341239  0.3075966796226695   T   T   T
  0.6613858374447403  0.0553056292879930  0.3202353389155093   T   T   T
  0.4451715454809317  0.1054341891193573  0.3198844498474642   T   T   T
  0.3923935324822097  0.8369548080522051  0.3201547502045869   T   T   T
  0.2343486782781881  0.2406250803910552  0.3543716881090191   T   T   T
  0.0049312987442818  0.2648277973807041  0.3550873949137028   T   T   T
  0.2609492873031911  0.4940123157242837  0.3549054014892903   T   T   T
  0.2381253563140007  0.0065332934924598  0.3535830086873304   T   T   T
  0.7675852594050809  0.2648059838780767  0.3533643512082065   T   T   T
  0.4990886184314007  0.7339561584567278  0.3533792004468097   T   T   T
  0.9836961122145809  0.4853729902650699  0.3575909915011337   T   T   T
  0.5037919868635541  0.5183988300530160  0.3585769531939889   T   T   T
  0.0147732874813329  0.9971995941317005  0.3581457566913429   T   T   T
  0.7497129878665163  0.5082057999377554  0.3699014960203471   T   T   T
  0.7582730746343387  0.7488591605396877  0.3689254689556307   T   T   T
 
  0.00000000E+00  0.00000000E+00  0.00000000E+00
  0.00000000E+00  0.00000000E+00  0.00000000E+00
  0.00000000E+00  0.00000000E+00  0.00000000E+00
  0.00000000E+00  0.00000000E+00  0.00000000E+00
  0.00000000E+00  0.00000000E+00  0.00000000E+00
  0.00000000E+00  0.00000000E+00  0.00000000E+00
  0.00000000E+00  0.00000000E+00  0.00000000E+00
  0.00000000E+00  0.00000000E+00  0.00000000E+00
  0.00000000E+00  0.00000000E+00  0.00000000E+00
  0.00000000E+00  0.00000000E+00  0.00000000E+00
  0.00000000E+00  0.00000000E+00  0.00000000E+00
  0.00000000E+00  0.00000000E+00  0.00000000E+00
  0.00000000E+00  0.00000000E+00  0.00000000E+00
  0.00000000E+00  0.00000000E+00  0.00000000E+00
  0.00000000E+00  0.00000000E+00  0.00000000E+00
  0.00000000E+00  0.00000000E+00  0.00000000E+00
  0.00000000E+00  0.00000000E+00  0.00000000E+00
  0.00000000E+00  0.00000000E+00  0.00000000E+00
  0.00000000E+00  0.00000000E+00  0.00000000E+00
  0.00000000E+00  0.00000000E+00  0.00000000E+00
  0.00000000E+00  0.00000000E+00  0.00000000E+00
  0.00000000E+00  0.00000000E+00  0.00000000E+00
  0.00000000E+00  0.00000000E+00  0.00000000E+00
  0.00000000E+00  0.00000000E+00  0.00000000E+00
  0.00000000E+00  0.00000000E+00  0.00000000E+00
  0.00000000E+00  0.00000000E+00  0.00000000E+00
  0.00000000E+00  0.00000000E+00  0.00000000E+00
  0.00000000E+00  0.00000000E+00  0.00000000E+00
  0.00000000E+00  0.00000000E+00  0.00000000E+00
  0.00000000E+00  0.00000000E+00  0.00000000E+00
  0.00000000E+00  0.00000000E+00  0.00000000E+00
  0.00000000E+00  0.00000000E+00  0.00000000E+00
  0.00000000E+00  0.00000000E+00  0.00000000E+00
  0.00000000E+00  0.00000000E+00  0.00000000E+00
  0.00000000E+00  0.00000000E+00  0.00000000E+00
  0.00000000E+00  0.00000000E+00  0.00000000E+00
  0.00000000E+00  0.00000000E+00  0.00000000E+00
  0.00000000E+00  0.00000000E+00  0.00000000E+00
  0.00000000E+00  0.00000000E+00  0.00000000E+00
  0.00000000E+00  0.00000000E+00  0.00000000E+00
  0.00000000E+00  0.00000000E+00  0.00000000E+00
  0.00000000E+00  0.00000000E+00  0.00000000E+00
  0.00000000E+00  0.00000000E+00  0.00000000E+00
  0.00000000E+00  0.00000000E+00  0.00000000E+00
  0.00000000E+00  0.00000000E+00  0.00000000E+00
  0.00000000E+00  0.00000000E+00  0.00000000E+00
  0.00000000E+00  0.00000000E+00  0.00000000E+00
  0.00000000E+00  0.00000000E+00  0.00000000E+00
  0.00000000E+00  0.00000000E+00  0.00000000E+00
  0.00000000E+00  0.00000000E+00  0.00000000E+00
  0.00000000E+00  0.00000000E+00  0.00000000E+00
  0.00000000E+00  0.00000000E+00  0.00000000E+00
  0.00000000E+00  0.00000000E+00  0.00000000E+00
  0.00000000E+00  0.00000000E+00  0.00000000E+00
  0.00000000E+00  0.00000000E+00  0.00000000E+00
  0.00000000E+00  0.00000000E+00  0.00000000E+00
  0.00000000E+00  0.00000000E+00  0.00000000E+00
  0.00000000E+00  0.00000000E+00  0.00000000E+00
  0.00000000E+00  0.00000000E+00  0.00000000E+00
  0.00000000E+00  0.00000000E+00  0.00000000E+00
  0.00000000E+00  0.00000000E+00  0.00000000E+00
  0.00000000E+00  0.00000000E+00  0.00000000E+00
  0.00000000E+00  0.00000000E+00  0.00000000E+00
  0.00000000E+00  0.00000000E+00  0.00000000E+00
  0.00000000E+00  0.00000000E+00  0.00000000E+00
  0.00000000E+00  0.00000000E+00  0.00000000E+00
  0.00000000E+00  0.00000000E+00  0.00000000E+00
  0.00000000E+00  0.00000000E+00  0.00000000E+00
  0.00000000E+00  0.00000000E+00  0.00000000E+00
  0.00000000E+00  0.00000000E+00  0.00000000E+00
  0.00000000E+00  0.00000000E+00  0.00000000E+00
  0.00000000E+00  0.00000000E+00  0.00000000E+00
  0.00000000E+00  0.00000000E+00  0.00000000E+00
  0.00000000E+00  0.00000000E+00  0.00000000E+00
  0.00000000E+00  0.00000000E+00  0.00000000E+00
  0.00000000E+00  0.00000000E+00  0.00000000E+00
  0.00000000E+00  0.00000000E+00  0.00000000E+00
  0.00000000E+00  0.00000000E+00  0.00000000E+00
  0.00000000E+00  0.00000000E+00  0.00000000E+00
  0.00000000E+00  0.00000000E+00  0.00000000E+00
  0.00000000E+00  0.00000000E+00  0.00000000E+00
  0.00000000E+00  0.00000000E+00  0.00000000E+00
  0.00000000E+00  0.00000000E+00  0.00000000E+00
  0.00000000E+00  0.00000000E+00  0.00000000E+00
  0.00000000E+00  0.00000000E+00  0.00000000E+00
  0.00000000E+00  0.00000000E+00  0.00000000E+00
  0.00000000E+00  0.00000000E+00  0.00000000E+00
  0.00000000E+00  0.00000000E+00  0.00000000E+00
  0.00000000E+00  0.00000000E+00  0.00000000E+00
  0.00000000E+00  0.00000000E+00  0.00000000E+00
  0.00000000E+00  0.00000000E+00  0.00000000E+00
  0.00000000E+00  0.00000000E+00  0.00000000E+00
  0.00000000E+00  0.00000000E+00  0.00000000E+00
  0.00000000E+00  0.00000000E+00  0.00000000E+00
  0.00000000E+00  0.00000000E+00  0.00000000E+00
  0.00000000E+00  0.00000000E+00  0.00000000E+00
  0.00000000E+00  0.00000000E+00  0.00000000E+00
  0.00000000E+00  0.00000000E+00  0.00000000E+00
  0.00000000E+00  0.00000000E+00  0.00000000E+00
  0.00000000E+00  0.00000000E+00  0.00000000E+00
  0.00000000E+00  0.00000000E+00  0.00000000E+00
  0.00000000E+00  0.00000000E+00  0.00000000E+00
  0.00000000E+00  0.00000000E+00  0.00000000E+00
  0.00000000E+00  0.00000000E+00  0.00000000E+00
  0.00000000E+00  0.00000000E+00  0.00000000E+00
  0.00000000E+00  0.00000000E+00  0.00000000E+00
  0.00000000E+00  0.00000000E+00  0.00000000E+00
  0.00000000E+00  0.00000000E+00  0.00000000E+00
  0.00000000E+00  0.00000000E+00  0.00000000E+00
  0.00000000E+00  0.00000000E+00  0.00000000E+00
  0.00000000E+00  0.00000000E+00  0.00000000E+00
  0.00000000E+00  0.00000000E+00  0.00000000E+00
  0.00000000E+00  0.00000000E+00  0.00000000E+00
  0.00000000E+00  0.00000000E+00  0.00000000E+00
  0.00000000E+00  0.00000000E+00  0.00000000E+00
  0.00000000E+00  0.00000000E+00  0.00000000E+00
  0.00000000E+00  0.00000000E+00  0.00000000E+00
  0.00000000E+00  0.00000000E+00  0.00000000E+00
  0.00000000E+00  0.00000000E+00  0.00000000E+00
