In O                                    
   1.00000000000000     
    14.4942117030500004    0.0000000000000000    0.0000000000000000
    -7.2471058515250002   12.5523555426710001    0.0000000000000000
     0.0000000000000000    0.0000000000000000   26.8344742987830003
   In   O 
    48    71
Selective dynamics
Direct
  0.2822115220986916  0.0162443787139921  0.1039248575277867   T   T   T
  0.2446226320690954  0.2325414961236021  0.1023618305757381   T   T   T
  0.7385270554626544  0.2197994803677972  0.1063635869050685   T   T   T
  0.9927689754019013  0.2590106737822637  0.1027648864578481   T   T   T
  0.2707962724915092  0.5104251536919122  0.1022190359263462   T   T   T
  0.4863754921971832  0.7649491653909450  0.1056281185464627   T   T   T
  0.9986085188829819  0.0078338479192510  0.1117581376495664   T   T   T
  0.0136173759304370  0.5043431554248130  0.1120477746610860   T   T   T
  0.4965733317291807  0.4900958092581860  0.1111293711903869   T   T   T
  0.5030319216360013  0.0005251471842911  0.0979393950838201   T   T   T
  0.5170632320251585  0.2400961133486703  0.1091936031183280   T   T   T
  0.7237782536039603  0.4870758997363325  0.1209323427343492   T   T   T
  0.0168284122890654  0.7344011089237199  0.1215034781976811   T   T   T
  0.2643558632276921  0.7757768776154492  0.1107485543575280   T   T   T
  0.7678730775148281  0.7786389220314689  0.1197326858052321   T   T   T
  0.7281325476008362  0.9870856031780306  0.1117665251223912   T   T   T
  0.1580898478930237  0.0931365619527611  0.2119546019758189   T   T   T
  0.9396845286022071  0.3453494943388193  0.2123335536916784   T   T   T
  0.4102245846200674  0.5628564255382145  0.2113982384385622   T   T   T
  0.9028314342360346  0.5573708448524926  0.2153928949321937   T   T   T
  0.6589169951294238  0.5994770979627830  0.2152812328904332   T   T   T
  0.9442383706597681  0.8424854993771334  0.2131729168679755   T   T   T
  0.6676588318675840  0.3319138606418122  0.2211835607694894   T   T   T
  0.1727471541080448  0.8369954182189687  0.2208782323676175   T   T   T
  0.6694922228155846  0.8332528202064537  0.2197925519424544   T   T   T
  0.1693184543315667  0.3344139471365324  0.2202330988308532   T   T   T
  0.6777813420176244  0.0675295197462660  0.2261068872378544   T   T   T
  0.4338917009862584  0.1092434355592502  0.2207138449241910   T   T   T
  0.9280352022992986  0.1043032841598830  0.2287039292179500   T   T   T
  0.3989730695373837  0.3226634758005105  0.2280417511003421   T   T   T
  0.1807622293361888  0.5750497338050380  0.2288634461760637   T   T   T
  0.3951802703738849  0.8232952276279022  0.2252003649563505   T   T   T
  0.6106791518664778  0.1769439430467372  0.3237455661431738   T   T   T
  0.8221415071633089  0.4266694474031993  0.3295881497211468   T   T   T
  0.6107973038270558  0.6797572640478506  0.3296594400845620   T   T   T
  0.0664761016517588  0.8870878837667533  0.3256418322495662   T   T   T
  0.5726013058776473  0.8872424167933630  0.3202525224338686   T   T   T
  0.3332547054993071  0.9347073737928326  0.3210728180864919   T   T   T
  0.3299278980578251  0.1685925698214845  0.3299055065640601   T   T   T
  0.8423608612657745  0.1775095111846667  0.3294043240617270   T   T   T
  0.3412964318409522  0.6604925599063591  0.3286318028017945   T   T   T
  0.8336806698157275  0.6644631623792279  0.3408404978566253   T   T   T
  0.0691770540293817  0.1587370808815862  0.3376307106673835   T   T   T
  0.3464931445286510  0.4112119879911802  0.3378940339349654   T   T   T
  0.0937006478135558  0.4358318277722049  0.3384435728268258   T   T   T
  0.5996397784567833  0.4465297709431013  0.3346049374435864   T   T   T
  0.0559160436447144  0.6511357611158886  0.3357797525194925   T   T   T
  0.8519971643946960  0.9020378506430333  0.3342616701174634   T   T   T
  0.5901137804403476  0.1627612646559413  0.0685064730737608   T   T   T
  0.3405704368914257  0.9238116103659166  0.0681524094518124   T   T   T
  0.5791592423970968  0.9152931445944219  0.0693326509761789   T   T   T
  0.8322502358142359  0.1475401165315802  0.0838085628432381   T   T   T
  0.3547618949422642  0.1826439426102127  0.0821961441665806   T   T   T
  0.3205499929950903  0.6709950363496731  0.0828724395347393   T   T   T
  0.5699526380881039  0.4027702238234454  0.0880304896157043   T   T   T
  0.1012579892775918  0.6650159629469599  0.0893077900313415   T   T   T
  0.8385259295763134  0.9336723083810838  0.0886298777679642   T   T   T
  0.0765197166592770  0.1737818264267972  0.0876800551430748   T   T   T
  0.3301171494876129  0.4014368277413567  0.0873198532887969   T   T   T
  0.1015589825071999  0.4268240661609539  0.0871144053765747   T   T   T
  0.8918196599188590  0.5620914636130721  0.1229038508025084   T   T   T
  0.6755024746129195  0.6111741353585529  0.1207621769452487   T   T   T
  0.9415345382171978  0.8272390902595887  0.1232754794759003   T   T   T
  0.1624810239896064  0.0561478323220044  0.1299724681602683   T   T   T
  0.8988975777278227  0.3406149431111629  0.1305192473584853   T   T   T
  0.4467913975254945  0.6044034338141628  0.1297760677792965   T   T   T
  0.6883768715538068  0.3242481159471211  0.1407551053765843   T   T   T
  0.6410544144127215  0.8143366314609608  0.1396178345071988   T   T   T
  0.1797853595994852  0.8632464309850505  0.1404848494752216   T   T   T
  0.4298838763856381  0.0778528965446625  0.1448469786667559   T   T   T
  0.6522269982057409  0.0737937178066801  0.1486174706276557   T   T   T
  0.4242924525535443  0.8497589336969469  0.1475854765023499   T   T   T
  0.0130380596446642  0.2520332191449128  0.1823073434933988   T   T   T
  0.2517789357435660  0.2589978505857076  0.1821506039148062   T   T   T
  0.2427154278446437  0.4899218147708453  0.1815575241486087   T   T   T
  0.9832993335714875  0.0062519918462272  0.1922739937219546   T   T   T
  0.4972851311073470  0.4748831540026757  0.1915445614661095   T   T   T
  0.0280658754920182  0.5202973556603823  0.1924497173959310   T   T   T
  0.5040735110151786  0.2741895612404406  0.1962100217491027   T   T   T
  0.2290697977006602  0.7304386771248943  0.1994260610762666   T   T   T
  0.7747143550507545  0.9985416735924062  0.1975935425520632   T   T   T
  0.7338548106671183  0.5061900272682749  0.2015034171013426   T   T   T
  0.9992002002237186  0.7265992621575634  0.2023112553176318   T   T   T
  0.7759132608574504  0.7671946819994844  0.2001997509204756   T   T   T
  0.5962956164548388  0.1558454392593944  0.2426454741373831   T   T   T
  0.5627768368988910  0.8985237406886242  0.2394431747005328   T   T   T
  0.3467501640783510  0.9446106123820002  0.2404866668998409   T   T   T
  0.8327988228738903  0.3921894983197163  0.2435499417464797   T   T   T
  0.5636790725164218  0.6687340107883131  0.2429080075820025   T   T   T
  0.1098151433843313  0.9386858376579070  0.2434103739381328   T   T   T
  0.3114167351603641  0.1442380210952408  0.2492042010430495   T   T   T
  0.8409046283619119  0.1919816552461455  0.2488687323662262   T   T   T
  0.3554045083667035  0.6600409627349890  0.2481454173966071   T   T   T
  0.0954512580957285  0.1778541677932566  0.2583859479659552   T   T   T
  0.0874502176034326  0.4088247383137542  0.2590186283215345   T   T   T
  0.3250863150165841  0.4163016764809981  0.2583333911731671   T   T   T
  0.6846984807915248  0.5932304557487811  0.2927825640277817   T   T   T
  0.9105963163687534  0.5897638213336762  0.2929100440683996   T   T   T
  0.9097156270642088  0.8153768352060595  0.2907384800235135   T   T   T
  0.6468927645953499  0.3388514428179263  0.3012544946352591   T   T   T
  0.1692268635607093  0.8209163415316922  0.3058748398106346   T   T   T
  0.6985755298642360  0.8523863618011376  0.2999653055635321   T   T   T
  0.8941817252346951  0.0629632374344311  0.3115939474243916   T   T   T
  0.4407436568043792  0.3297710991252387  0.3084051308727709   T   T   T
  0.1763443120338053  0.6151177844996454  0.3103465837015165   T   T   T
  0.6637874228502980  0.0551548575022949  0.3193116066598307   T   T   T
  0.4395344985582454  0.1000957986098854  0.3357071168009398   T   T   T
  0.4004227156477143  0.8365386064464886  0.3167488184690441   T   T   T
  0.2375253331292555  0.2426356454190284  0.3539846381654073   T   T   T
  0.0087031432000302  0.2665479825476567  0.3531671525234401   T   T   T
  0.2618188477363077  0.4958812291748487  0.3531023175178731   T   T   T
  0.7690703676784096  0.2644646311801040  0.3523931469097263   T   T   T
  0.5018933858048342  0.7326487613493029  0.3523674631260505   T   T   T
  0.9836255225556911  0.4855627232140876  0.3584722706693384   T   T   T
  0.5066959805287254  0.5193073943062814  0.3580614099326382   T   T   T
  0.0244755680668547  0.9965358842411973  0.3556190375853490   T   T   T
  0.7498025917068318  0.5040493576276361  0.3708747777574644   T   T   T
  0.7613679554739150  0.7529148053543722  0.3712434465543311   T   T   T
  0.9960243575580208  0.7428772553857357  0.3703014668107016   T   T   T
 
  0.00000000E+00  0.00000000E+00  0.00000000E+00
  0.00000000E+00  0.00000000E+00  0.00000000E+00
  0.00000000E+00  0.00000000E+00  0.00000000E+00
  0.00000000E+00  0.00000000E+00  0.00000000E+00
  0.00000000E+00  0.00000000E+00  0.00000000E+00
  0.00000000E+00  0.00000000E+00  0.00000000E+00
  0.00000000E+00  0.00000000E+00  0.00000000E+00
  0.00000000E+00  0.00000000E+00  0.00000000E+00
  0.00000000E+00  0.00000000E+00  0.00000000E+00
  0.00000000E+00  0.00000000E+00  0.00000000E+00
  0.00000000E+00  0.00000000E+00  0.00000000E+00
  0.00000000E+00  0.00000000E+00  0.00000000E+00
  0.00000000E+00  0.00000000E+00  0.00000000E+00
  0.00000000E+00  0.00000000E+00  0.00000000E+00
  0.00000000E+00  0.00000000E+00  0.00000000E+00
  0.00000000E+00  0.00000000E+00  0.00000000E+00
  0.00000000E+00  0.00000000E+00  0.00000000E+00
  0.00000000E+00  0.00000000E+00  0.00000000E+00
  0.00000000E+00  0.00000000E+00  0.00000000E+00
  0.00000000E+00  0.00000000E+00  0.00000000E+00
  0.00000000E+00  0.00000000E+00  0.00000000E+00
  0.00000000E+00  0.00000000E+00  0.00000000E+00
  0.00000000E+00  0.00000000E+00  0.00000000E+00
  0.00000000E+00  0.00000000E+00  0.00000000E+00
  0.00000000E+00  0.00000000E+00  0.00000000E+00
  0.00000000E+00  0.00000000E+00  0.00000000E+00
  0.00000000E+00  0.00000000E+00  0.00000000E+00
  0.00000000E+00  0.00000000E+00  0.00000000E+00
  0.00000000E+00  0.00000000E+00  0.00000000E+00
  0.00000000E+00  0.00000000E+00  0.00000000E+00
  0.00000000E+00  0.00000000E+00  0.00000000E+00
  0.00000000E+00  0.00000000E+00  0.00000000E+00
  0.00000000E+00  0.00000000E+00  0.00000000E+00
  0.00000000E+00  0.00000000E+00  0.00000000E+00
  0.00000000E+00  0.00000000E+00  0.00000000E+00
  0.00000000E+00  0.00000000E+00  0.00000000E+00
  0.00000000E+00  0.00000000E+00  0.00000000E+00
  0.00000000E+00  0.00000000E+00  0.00000000E+00
  0.00000000E+00  0.00000000E+00  0.00000000E+00
  0.00000000E+00  0.00000000E+00  0.00000000E+00
  0.00000000E+00  0.00000000E+00  0.00000000E+00
  0.00000000E+00  0.00000000E+00  0.00000000E+00
  0.00000000E+00  0.00000000E+00  0.00000000E+00
  0.00000000E+00  0.00000000E+00  0.00000000E+00
  0.00000000E+00  0.00000000E+00  0.00000000E+00
  0.00000000E+00  0.00000000E+00  0.00000000E+00
  0.00000000E+00  0.00000000E+00  0.00000000E+00
  0.00000000E+00  0.00000000E+00  0.00000000E+00
  0.00000000E+00  0.00000000E+00  0.00000000E+00
  0.00000000E+00  0.00000000E+00  0.00000000E+00
  0.00000000E+00  0.00000000E+00  0.00000000E+00
  0.00000000E+00  0.00000000E+00  0.00000000E+00
  0.00000000E+00  0.00000000E+00  0.00000000E+00
  0.00000000E+00  0.00000000E+00  0.00000000E+00
  0.00000000E+00  0.00000000E+00  0.00000000E+00
  0.00000000E+00  0.00000000E+00  0.00000000E+00
  0.00000000E+00  0.00000000E+00  0.00000000E+00
  0.00000000E+00  0.00000000E+00  0.00000000E+00
  0.00000000E+00  0.00000000E+00  0.00000000E+00
  0.00000000E+00  0.00000000E+00  0.00000000E+00
  0.00000000E+00  0.00000000E+00  0.00000000E+00
  0.00000000E+00  0.00000000E+00  0.00000000E+00
  0.00000000E+00  0.00000000E+00  0.00000000E+00
  0.00000000E+00  0.00000000E+00  0.00000000E+00
  0.00000000E+00  0.00000000E+00  0.00000000E+00
  0.00000000E+00  0.00000000E+00  0.00000000E+00
  0.00000000E+00  0.00000000E+00  0.00000000E+00
  0.00000000E+00  0.00000000E+00  0.00000000E+00
  0.00000000E+00  0.00000000E+00  0.00000000E+00
  0.00000000E+00  0.00000000E+00  0.00000000E+00
  0.00000000E+00  0.00000000E+00  0.00000000E+00
  0.00000000E+00  0.00000000E+00  0.00000000E+00
  0.00000000E+00  0.00000000E+00  0.00000000E+00
  0.00000000E+00  0.00000000E+00  0.00000000E+00
  0.00000000E+00  0.00000000E+00  0.00000000E+00
  0.00000000E+00  0.00000000E+00  0.00000000E+00
  0.00000000E+00  0.00000000E+00  0.00000000E+00
  0.00000000E+00  0.00000000E+00  0.00000000E+00
  0.00000000E+00  0.00000000E+00  0.00000000E+00
  0.00000000E+00  0.00000000E+00  0.00000000E+00
  0.00000000E+00  0.00000000E+00  0.00000000E+00
  0.00000000E+00  0.00000000E+00  0.00000000E+00
  0.00000000E+00  0.00000000E+00  0.00000000E+00
  0.00000000E+00  0.00000000E+00  0.00000000E+00
  0.00000000E+00  0.00000000E+00  0.00000000E+00
  0.00000000E+00  0.00000000E+00  0.00000000E+00
  0.00000000E+00  0.00000000E+00  0.00000000E+00
  0.00000000E+00  0.00000000E+00  0.00000000E+00
  0.00000000E+00  0.00000000E+00  0.00000000E+00
  0.00000000E+00  0.00000000E+00  0.00000000E+00
  0.00000000E+00  0.00000000E+00  0.00000000E+00
  0.00000000E+00  0.00000000E+00  0.00000000E+00
  0.00000000E+00  0.00000000E+00  0.00000000E+00
  0.00000000E+00  0.00000000E+00  0.00000000E+00
  0.00000000E+00  0.00000000E+00  0.00000000E+00
  0.00000000E+00  0.00000000E+00  0.00000000E+00
  0.00000000E+00  0.00000000E+00  0.00000000E+00
  0.00000000E+00  0.00000000E+00  0.00000000E+00
  0.00000000E+00  0.00000000E+00  0.00000000E+00
  0.00000000E+00  0.00000000E+00  0.00000000E+00
  0.00000000E+00  0.00000000E+00  0.00000000E+00
  0.00000000E+00  0.00000000E+00  0.00000000E+00
  0.00000000E+00  0.00000000E+00  0.00000000E+00
  0.00000000E+00  0.00000000E+00  0.00000000E+00
  0.00000000E+00  0.00000000E+00  0.00000000E+00
  0.00000000E+00  0.00000000E+00  0.00000000E+00
  0.00000000E+00  0.00000000E+00  0.00000000E+00
  0.00000000E+00  0.00000000E+00  0.00000000E+00
  0.00000000E+00  0.00000000E+00  0.00000000E+00
  0.00000000E+00  0.00000000E+00  0.00000000E+00
  0.00000000E+00  0.00000000E+00  0.00000000E+00
  0.00000000E+00  0.00000000E+00  0.00000000E+00
  0.00000000E+00  0.00000000E+00  0.00000000E+00
  0.00000000E+00  0.00000000E+00  0.00000000E+00
  0.00000000E+00  0.00000000E+00  0.00000000E+00
  0.00000000E+00  0.00000000E+00  0.00000000E+00
  0.00000000E+00  0.00000000E+00  0.00000000E+00
  0.00000000E+00  0.00000000E+00  0.00000000E+00
  0.00000000E+00  0.00000000E+00  0.00000000E+00
