In O                                    
   1.00000000000000     
    14.4942117030500004    0.0000000000000000    0.0000000000000000
    -7.2471058515250002   12.5523555426710001    0.0000000000000000
     0.0000000000000000    0.0000000000000000   26.8344742987830003
   In   O 
    48    71
Selective dynamics
Direct
  0.2801751723120773  0.0154710370907623  0.1066400688943929   T   T   T
  0.2414379588478184  0.2312274967093870  0.1025431041502003   T   T   T
  0.7353890872666256  0.2196858212929840  0.1066010074645973   T   T   T
  0.9900921321225411  0.2586385320145510  0.1015462222515140   T   T   T
  0.2682497438436044  0.5098584443533412  0.1014387774375791   T   T   T
  0.4842523994852144  0.7647289177020369  0.1063560339675078   T   T   T
  0.9962433555378638  0.0075115521001479  0.1117201348306054   T   T   T
  0.0121666197935042  0.5040448774837643  0.1108088415105541   T   T   T
  0.4920251332209560  0.4878392324410044  0.1115639503289998   T   T   T
  0.4999311152093782  0.9999736954719438  0.1003863463199011   T   T   T
  0.5125785869042687  0.2384495604959227  0.1112779654902383   T   T   T
  0.7202500945568318  0.4866302285615873  0.1209120724164237   T   T   T
  0.0133137561641377  0.7342984589680341  0.1207644368866312   T   T   T
  0.2613744736112196  0.7742401974358444  0.1120294139869813   T   T   T
  0.7666038603612577  0.7797964296487194  0.1202096356666118   T   T   T
  0.7253641067856620  0.9870541597048756  0.1105613057130626   T   T   T
  0.1551186203415824  0.0922029717345438  0.2124166272149850   T   T   T
  0.9380379293190231  0.3456159409740636  0.2113413043238594   T   T   T
  0.4044754825695875  0.5607641412762305  0.2104412421724930   T   T   T
  0.9011030545578862  0.5553289486201649  0.2121839930702052   T   T   T
  0.6573932461966763  0.6000871517817146  0.2133880473531633   T   T   T
  0.9426059609959978  0.8432524309051530  0.2143727780794862   T   T   T
  0.6660968951986703  0.3322621165427861  0.2206379153495419   T   T   T
  0.1663677602665601  0.8328444918833071  0.2211725306325434   T   T   T
  0.6679680958756578  0.8345543553755590  0.2202303781651835   T   T   T
  0.1673273975402765  0.3338343397372583  0.2200728869537514   T   T   T
  0.6768746067024338  0.0672246755075392  0.2263443743475690   T   T   T
  0.4323687852719758  0.1090886426361024  0.2258038727752094   T   T   T
  0.9281176666532360  0.1082568332817644  0.2269673716404199   T   T   T
  0.3955654493174023  0.3213474342658316  0.2288203010365351   T   T   T
  0.1784054093991401  0.5737138139185518  0.2284039435179466   T   T   T
  0.3914052221848792  0.8230943120310528  0.2265811073909845   T   T   T
  0.6118874965412502  0.1790308169513608  0.3210467707978779   T   T   T
  0.8220697958315881  0.4256410291482311  0.3284185625861298   T   T   T
  0.5838201936211220  0.6673600338354788  0.3216456136252219   T   T   T
  0.0741554440632299  0.8937675484275900  0.3301932006504629   T   T   T
  0.5662313795128213  0.8887234607785643  0.3231478315273009   T   T   T
  0.3212905058571209  0.9341087293306245  0.3210041815669200   T   T   T
  0.3236705312353791  0.1629497529304373  0.3296025061129626   T   T   T
  0.8413880107596157  0.1816374672076222  0.3287125023191066   T   T   T
  0.3339898543342699  0.6596752759810371  0.3295491046827337   T   T   T
  0.8405426559839100  0.6598023480102455  0.3320518125021508   T   T   T
  0.0683847036459113  0.1623681236135397  0.3382755655521805   T   T   T
  0.3407192747553651  0.4064217567640185  0.3384949751886879   T   T   T
  0.0920095960948188  0.4351414679481778  0.3385551866158920   T   T   T
  0.5985194577347741  0.4471805505129751  0.3343600475003754   T   T   T
  0.0560903831010293  0.6509675397898675  0.3352905430379991   T   T   T
  0.8579947019673284  0.9178753665214430  0.3288848268039644   T   T   T
  0.5853381788306038  0.1612782933665287  0.0704601071897031   T   T   T
  0.3384142183165579  0.9232128460912605  0.0707084679431134   T   T   T
  0.5756195884474380  0.9147015997235712  0.0700047325567894   T   T   T
  0.8292674740687787  0.1479812427916798  0.0832439834048913   T   T   T
  0.3516378072745070  0.1810092040897118  0.0833393256936361   T   T   T
  0.3185319751818838  0.6709439706248617  0.0835455385909398   T   T   T
  0.5661355715339340  0.4018109893944057  0.0888671140309398   T   T   T
  0.0981680511864624  0.6648246374676177  0.0889182945076428   T   T   T
  0.8358280190037135  0.9344168124698413  0.0888018928368624   T   T   T
  0.0738059370816799  0.1729295817302585  0.0874023817685483   T   T   T
  0.3266208844286211  0.4003047952727741  0.0872807738963388   T   T   T
  0.0994634367306091  0.4261478431376418  0.0863835379474978   T   T   T
  0.8883951117194400  0.5611475703437989  0.1231891053088177   T   T   T
  0.6730083874740700  0.6116971770279420  0.1232619209612835   T   T   T
  0.9383622965960470  0.8274016367808699  0.1226024701957513   T   T   T
  0.1594324224745876  0.0554013767972563  0.1311499223098167   T   T   T
  0.8965287059993798  0.3408554643298842  0.1297837148871679   T   T   T
  0.4443320574080545  0.6035747227868455  0.1299069333164269   T   T   T
  0.6859321822426239  0.3251374245671101  0.1406711629009223   T   T   T
  0.6393753365100991  0.8144415615442213  0.1403964760405501   T   T   T
  0.1747804673876487  0.8611997077152793  0.1412097083698427   T   T   T
  0.4266034544742254  0.0774869047035338  0.1485984837566789   T   T   T
  0.6516008300310929  0.0729216749459525  0.1489314454322681   T   T   T
  0.4238716134538549  0.8492449732565603  0.1494800653454149   T   T   T
  0.0117890235588405  0.2527339041481014  0.1812502823870616   T   T   T
  0.2493483686680804  0.2595639381397845  0.1821070339894746   T   T   T
  0.2396524539748270  0.4889325156609914  0.1812229204100575   T   T   T
  0.9801983899282192  0.0060357754396136  0.1926273051363907   T   T   T
  0.4943460926876142  0.4751144578850912  0.1926642939617693   T   T   T
  0.0267446909149953  0.5192740566188832  0.1914218080222625   T   T   T
  0.5018586924255928  0.2739311262785691  0.1982627586609951   T   T   T
  0.2262557813493729  0.7280905465784429  0.1985051299338707   T   T   T
  0.7724069335915686  0.9973636032017410  0.1997155761588871   T   T   T
  0.7311991069320101  0.5064375475793454  0.2024905030448849   T   T   T
  0.9929032985108392  0.7255693513082164  0.2018223807356421   T   T   T
  0.7744478845637985  0.7693054357224725  0.2019615604846265   T   T   T
  0.6009276123253429  0.1594500047545822  0.2406801740233178   T   T   T
  0.5615894117884324  0.8960541001656068  0.2426176738101802   T   T   T
  0.3395557684785686  0.9409714810929657  0.2404490557147199   T   T   T
  0.8311622030737382  0.3922412632426600  0.2428936305334801   T   T   T
  0.5598804172200005  0.6694097514874571  0.2414937372466071   T   T   T
  0.1034775623497310  0.9368108432775344  0.2454119865704385   T   T   T
  0.3069637805691698  0.1459281445043530  0.2492489083272389   T   T   T
  0.8391351200868371  0.1942770329553341  0.2481863142767082   T   T   T
  0.3534438195987732  0.6598296626604139  0.2491851820739939   T   T   T
  0.0942344322951030  0.1787183946539272  0.2588990492940582   T   T   T
  0.0847650088135978  0.4071423895795689  0.2590053739834346   T   T   T
  0.3230246793072524  0.4159939612449293  0.2590285871435540   T   T   T
  0.6843952655936718  0.6029622722773453  0.2948549516392731   T   T   T
  0.9127757188397752  0.5873674344972457  0.2900860637402189   T   T   T
  0.9032397231513016  0.8144162975235858  0.2948808548369897   T   T   T
  0.6486085182257426  0.3430609198189742  0.3011122370495229   T   T   T
  0.1586102452502658  0.8058646927500419  0.3018062340265431   T   T   T
  0.6953808195924438  0.8400524381669143  0.3097121585231406   T   T   T
  0.8925321508324373  0.0702079044966339  0.3077873288814672   T   T   T
  0.4376902837086902  0.3276558240308916  0.3107464550438692   T   T   T
  0.1726490481596912  0.6097242421397482  0.3102156308619186   T   T   T
  0.6628974540996140  0.0555157147312428  0.3199901722840934   T   T   T
  0.4446337947084089  0.1059496321594509  0.3200732222496043   T   T   T
  0.3946499675539954  0.8396837364145000  0.3197713286951540   T   T   T
  0.2350488030205398  0.2400468654738432  0.3548424051575623   T   T   T
  0.0059939721951068  0.2668922436723165  0.3546706350632149   T   T   T
  0.2595047309692546  0.4937704233236460  0.3541900983033841   T   T   T
  0.2351774193522900  0.0027082950729493  0.3532933525609820   T   T   T
  0.7661219711199720  0.2651523663910211  0.3532933368887683   T   T   T
  0.4938974027594085  0.7317504724254391  0.3534833183249759   T   T   T
  0.9815076208256457  0.4854564850206913  0.3586111169494544   T   T   T
  0.5031360010473662  0.5178338664494078  0.3582172376098285   T   T   T
  0.0146976225876685  0.9980849794077216  0.3577446267893265   T   T   T
  0.7513129979428612  0.5095245335935132  0.3689749246603142   T   T   T
  0.9916536036351502  0.7418269807470921  0.3698641220763008   T   T   T
 
  0.00000000E+00  0.00000000E+00  0.00000000E+00
  0.00000000E+00  0.00000000E+00  0.00000000E+00
  0.00000000E+00  0.00000000E+00  0.00000000E+00
  0.00000000E+00  0.00000000E+00  0.00000000E+00
  0.00000000E+00  0.00000000E+00  0.00000000E+00
  0.00000000E+00  0.00000000E+00  0.00000000E+00
  0.00000000E+00  0.00000000E+00  0.00000000E+00
  0.00000000E+00  0.00000000E+00  0.00000000E+00
  0.00000000E+00  0.00000000E+00  0.00000000E+00
  0.00000000E+00  0.00000000E+00  0.00000000E+00
  0.00000000E+00  0.00000000E+00  0.00000000E+00
  0.00000000E+00  0.00000000E+00  0.00000000E+00
  0.00000000E+00  0.00000000E+00  0.00000000E+00
  0.00000000E+00  0.00000000E+00  0.00000000E+00
  0.00000000E+00  0.00000000E+00  0.00000000E+00
  0.00000000E+00  0.00000000E+00  0.00000000E+00
  0.00000000E+00  0.00000000E+00  0.00000000E+00
  0.00000000E+00  0.00000000E+00  0.00000000E+00
  0.00000000E+00  0.00000000E+00  0.00000000E+00
  0.00000000E+00  0.00000000E+00  0.00000000E+00
  0.00000000E+00  0.00000000E+00  0.00000000E+00
  0.00000000E+00  0.00000000E+00  0.00000000E+00
  0.00000000E+00  0.00000000E+00  0.00000000E+00
  0.00000000E+00  0.00000000E+00  0.00000000E+00
  0.00000000E+00  0.00000000E+00  0.00000000E+00
  0.00000000E+00  0.00000000E+00  0.00000000E+00
  0.00000000E+00  0.00000000E+00  0.00000000E+00
  0.00000000E+00  0.00000000E+00  0.00000000E+00
  0.00000000E+00  0.00000000E+00  0.00000000E+00
  0.00000000E+00  0.00000000E+00  0.00000000E+00
  0.00000000E+00  0.00000000E+00  0.00000000E+00
  0.00000000E+00  0.00000000E+00  0.00000000E+00
  0.00000000E+00  0.00000000E+00  0.00000000E+00
  0.00000000E+00  0.00000000E+00  0.00000000E+00
  0.00000000E+00  0.00000000E+00  0.00000000E+00
  0.00000000E+00  0.00000000E+00  0.00000000E+00
  0.00000000E+00  0.00000000E+00  0.00000000E+00
  0.00000000E+00  0.00000000E+00  0.00000000E+00
  0.00000000E+00  0.00000000E+00  0.00000000E+00
  0.00000000E+00  0.00000000E+00  0.00000000E+00
  0.00000000E+00  0.00000000E+00  0.00000000E+00
  0.00000000E+00  0.00000000E+00  0.00000000E+00
  0.00000000E+00  0.00000000E+00  0.00000000E+00
  0.00000000E+00  0.00000000E+00  0.00000000E+00
  0.00000000E+00  0.00000000E+00  0.00000000E+00
  0.00000000E+00  0.00000000E+00  0.00000000E+00
  0.00000000E+00  0.00000000E+00  0.00000000E+00
  0.00000000E+00  0.00000000E+00  0.00000000E+00
  0.00000000E+00  0.00000000E+00  0.00000000E+00
  0.00000000E+00  0.00000000E+00  0.00000000E+00
  0.00000000E+00  0.00000000E+00  0.00000000E+00
  0.00000000E+00  0.00000000E+00  0.00000000E+00
  0.00000000E+00  0.00000000E+00  0.00000000E+00
  0.00000000E+00  0.00000000E+00  0.00000000E+00
  0.00000000E+00  0.00000000E+00  0.00000000E+00
  0.00000000E+00  0.00000000E+00  0.00000000E+00
  0.00000000E+00  0.00000000E+00  0.00000000E+00
  0.00000000E+00  0.00000000E+00  0.00000000E+00
  0.00000000E+00  0.00000000E+00  0.00000000E+00
  0.00000000E+00  0.00000000E+00  0.00000000E+00
  0.00000000E+00  0.00000000E+00  0.00000000E+00
  0.00000000E+00  0.00000000E+00  0.00000000E+00
  0.00000000E+00  0.00000000E+00  0.00000000E+00
  0.00000000E+00  0.00000000E+00  0.00000000E+00
  0.00000000E+00  0.00000000E+00  0.00000000E+00
  0.00000000E+00  0.00000000E+00  0.00000000E+00
  0.00000000E+00  0.00000000E+00  0.00000000E+00
  0.00000000E+00  0.00000000E+00  0.00000000E+00
  0.00000000E+00  0.00000000E+00  0.00000000E+00
  0.00000000E+00  0.00000000E+00  0.00000000E+00
  0.00000000E+00  0.00000000E+00  0.00000000E+00
  0.00000000E+00  0.00000000E+00  0.00000000E+00
  0.00000000E+00  0.00000000E+00  0.00000000E+00
  0.00000000E+00  0.00000000E+00  0.00000000E+00
  0.00000000E+00  0.00000000E+00  0.00000000E+00
  0.00000000E+00  0.00000000E+00  0.00000000E+00
  0.00000000E+00  0.00000000E+00  0.00000000E+00
  0.00000000E+00  0.00000000E+00  0.00000000E+00
  0.00000000E+00  0.00000000E+00  0.00000000E+00
  0.00000000E+00  0.00000000E+00  0.00000000E+00
  0.00000000E+00  0.00000000E+00  0.00000000E+00
  0.00000000E+00  0.00000000E+00  0.00000000E+00
  0.00000000E+00  0.00000000E+00  0.00000000E+00
  0.00000000E+00  0.00000000E+00  0.00000000E+00
  0.00000000E+00  0.00000000E+00  0.00000000E+00
  0.00000000E+00  0.00000000E+00  0.00000000E+00
  0.00000000E+00  0.00000000E+00  0.00000000E+00
  0.00000000E+00  0.00000000E+00  0.00000000E+00
  0.00000000E+00  0.00000000E+00  0.00000000E+00
  0.00000000E+00  0.00000000E+00  0.00000000E+00
  0.00000000E+00  0.00000000E+00  0.00000000E+00
  0.00000000E+00  0.00000000E+00  0.00000000E+00
  0.00000000E+00  0.00000000E+00  0.00000000E+00
  0.00000000E+00  0.00000000E+00  0.00000000E+00
  0.00000000E+00  0.00000000E+00  0.00000000E+00
  0.00000000E+00  0.00000000E+00  0.00000000E+00
  0.00000000E+00  0.00000000E+00  0.00000000E+00
  0.00000000E+00  0.00000000E+00  0.00000000E+00
  0.00000000E+00  0.00000000E+00  0.00000000E+00
  0.00000000E+00  0.00000000E+00  0.00000000E+00
  0.00000000E+00  0.00000000E+00  0.00000000E+00
  0.00000000E+00  0.00000000E+00  0.00000000E+00
  0.00000000E+00  0.00000000E+00  0.00000000E+00
  0.00000000E+00  0.00000000E+00  0.00000000E+00
  0.00000000E+00  0.00000000E+00  0.00000000E+00
  0.00000000E+00  0.00000000E+00  0.00000000E+00
  0.00000000E+00  0.00000000E+00  0.00000000E+00
  0.00000000E+00  0.00000000E+00  0.00000000E+00
  0.00000000E+00  0.00000000E+00  0.00000000E+00
  0.00000000E+00  0.00000000E+00  0.00000000E+00
  0.00000000E+00  0.00000000E+00  0.00000000E+00
  0.00000000E+00  0.00000000E+00  0.00000000E+00
  0.00000000E+00  0.00000000E+00  0.00000000E+00
  0.00000000E+00  0.00000000E+00  0.00000000E+00
  0.00000000E+00  0.00000000E+00  0.00000000E+00
  0.00000000E+00  0.00000000E+00  0.00000000E+00
  0.00000000E+00  0.00000000E+00  0.00000000E+00
  0.00000000E+00  0.00000000E+00  0.00000000E+00
  0.00000000E+00  0.00000000E+00  0.00000000E+00
