In O                                    
   1.00000000000000     
    14.4942117030500004    0.0000000000000000    0.0000000000000000
    -7.2471058515250002   12.5523555426710001    0.0000000000000000
     0.0000000000000000    0.0000000000000000   26.8344742987830003
   In   O 
    48    71
Selective dynamics
Direct
  0.2804551040470999  0.0159093989656846  0.1062609991057135   T   T   T
  0.2415530150102389  0.2316496283925736  0.1027764338099563   T   T   T
  0.7354446581412177  0.2195591518391127  0.1057146617223228   T   T   T
  0.9903000939294186  0.2583484365793235  0.1024981853875147   T   T   T
  0.2683956546024386  0.5098176435627793  0.1027170507718375   T   T   T
  0.4841211904450292  0.7643828287038282  0.1056892118237716   T   T   T
  0.9959901494397519  0.0068077655679311  0.1120487514546321   T   T   T
  0.0113408581054322  0.5043714791346711  0.1118805046253226   T   T   T
  0.4927684940364874  0.4889337901676432  0.1120079569725572   T   T   T
  0.5000218974206356  0.0002468915346581  0.0986664305306695   T   T   T
  0.5132619052383085  0.2387840887743320  0.1109142170021527   T   T   T
  0.7208526884671238  0.4872212174046318  0.1204054422779457   T   T   T
  0.0127811799877525  0.7338134193580015  0.1202866066567724   T   T   T
  0.2609504426092478  0.7745657642827223  0.1101707896110193   T   T   T
  0.7663575968550107  0.7790984248621322  0.1203668984674418   T   T   T
  0.7256362729247121  0.9867720324124408  0.1109151182394323   T   T   T
  0.1547263178189831  0.0914508270237108  0.2123460678208454   T   T   T
  0.9359082550566310  0.3445065737954185  0.2113106242411341   T   T   T
  0.4079475677757906  0.5634989779184805  0.2124535971262627   T   T   T
  0.9000899833592119  0.5574275449064644  0.2149190653377574   T   T   T
  0.6567137943262682  0.5998384133075069  0.2149310415968704   T   T   T
  0.9425990768513701  0.8426791400167556  0.2152088625613489   T   T   T
  0.6662617257423502  0.3331481452793641  0.2199976789573422   T   T   T
  0.1660554082294540  0.8318998337813349  0.2204582650987892   T   T   T
  0.6670357391158288  0.8338208072895016  0.2200029086530584   T   T   T
  0.1658869390380679  0.3325498664073769  0.2205964368545022   T   T   T
  0.6768387699076135  0.0680040655928511  0.2247809600686588   T   T   T
  0.4330307031295995  0.1092896122973528  0.2250862766830092   T   T   T
  0.9255605985372434  0.1039162051930942  0.2289269534195306   T   T   T
  0.3956556439272111  0.3209031696335932  0.2282607580207597   T   T   T
  0.1792782717716379  0.5732002830603985  0.2289084183570268   T   T   T
  0.3920695223578785  0.8262400730226842  0.2239481567861333   T   T   T
  0.6119891891313004  0.1801523191580807  0.3206327436608620   T   T   T
  0.8164665159179118  0.4279857992295880  0.3287021677538279   T   T   T
  0.6087958107885098  0.6806050218145286  0.3291873579422107   T   T   T
  0.0715437726935401  0.8915829467527018  0.3294208943666818   T   T   T
  0.5723252509703137  0.8912298951317562  0.3205970704825124   T   T   T
  0.3206579827893627  0.9335660455615865  0.3204292051293112   T   T   T
  0.3225934565307903  0.1600826098492318  0.3290552747096535   T   T   T
  0.8366507211684702  0.1747238602647181  0.3292614262128032   T   T   T
  0.3453917876876904  0.6775176400896671  0.3286735106375483   T   T   T
  0.8332473955547121  0.6672746027523508  0.3410329918423924   T   T   T
  0.0646402544300766  0.1552252507087182  0.3384855581852025   T   T   T
  0.3478557582807802  0.4019127085445489  0.3378570416550427   T   T   T
  0.0747286074759844  0.4267289033015573  0.3379996251255573   T   T   T
  0.5985825540089753  0.4478336872069833  0.3347420189202851   T   T   T
  0.0517152607020764  0.6506668622485970  0.3356435052673965   T   T   T
  0.8498118312025669  0.9022535155293496  0.3348642265819429   T   T   T
  0.5855306235137658  0.1618110159451864  0.0691686221295392   T   T   T
  0.3381536162178532  0.9243525196691070  0.0690451024691798   T   T   T
  0.5761786642242059  0.9144725177248901  0.0692845085940165   T   T   T
  0.8298096890069461  0.1478550356965132  0.0832471653926087   T   T   T
  0.3520908567421446  0.1818387719806550  0.0834789429574800   T   T   T
  0.3179701039428863  0.6701736324324037  0.0831983371190589   T   T   T
  0.5659669606584855  0.4019123583146877  0.0888832338770084   T   T   T
  0.0979824015931535  0.6643343607974668  0.0884669303759343   T   T   T
  0.8358455164257411  0.9339507368610669  0.0888332761515496   T   T   T
  0.0738369218717958  0.1727351840933776  0.0876096908110130   T   T   T
  0.3269436301714456  0.4006956591132582  0.0876375611815625   T   T   T
  0.0994655949623382  0.4263456664441108  0.0877359629149590   T   T   T
  0.8887368879224999  0.5613210664740315  0.1219882729699880   T   T   T
  0.6721586091584795  0.6112219481137768  0.1220737174179284   T   T   T
  0.9388476128644996  0.8275278692004828  0.1216931242224761   T   T   T
  0.1599088604357038  0.0559083519226988  0.1308697323535344   T   T   T
  0.8961716648400344  0.3404159730468900  0.1300484073405364   T   T   T
  0.4437252669368134  0.6038659568599639  0.1306397459248985   T   T   T
  0.6860146832795457  0.3246446831529684  0.1399619365116793   T   T   T
  0.6385817239584304  0.8139774469058758  0.1400066435286867   T   T   T
  0.1757307279021850  0.8606954631959559  0.1402777390588532   T   T   T
  0.4272535665646864  0.0772732702843533  0.1479210257529185   T   T   T
  0.6503262745572315  0.0730044275693634  0.1476993548873606   T   T   T
  0.4219517226079189  0.8497063697944635  0.1471299942814503   T   T   T
  0.0104998030251071  0.2514006740390430  0.1822363414728702   T   T   T
  0.2489476802999810  0.2597921541588314  0.1825598052559564   T   T   T
  0.2411131148753623  0.4893315791096507  0.1826689941963358   T   T   T
  0.9803510685035911  0.0053622289021961  0.1926602893871647   T   T   T
  0.4929466833979007  0.4741950326167925  0.1927845665769754   T   T   T
  0.0261676040311017  0.5201359615966069  0.1925506747709399   T   T   T
  0.5018474949234156  0.2737443208374108  0.1973976239975790   T   T   T
  0.2258587730047985  0.7269744102846146  0.1987187648488780   T   T   T
  0.7722158601129460  0.9983425876673637  0.1975081946831228   T   T   T
  0.7311617584293090  0.5062056240334708  0.2010295324131537   T   T   T
  0.9935843592409928  0.7254566286848819  0.2008715865940811   T   T   T
  0.7745493056266319  0.7683418478281492  0.2009797903627287   T   T   T
  0.6010739723493875  0.1599161086235381  0.2401285401901335   T   T   T
  0.5592218348423849  0.8996476421019453  0.2400424337342444   T   T   T
  0.3396029879537635  0.9413418781560270  0.2399677977823942   T   T   T
  0.8307146530613967  0.3927134477725755  0.2429539902758011   T   T   T
  0.5612310648284791  0.6694933027514285  0.2433882150404827   T   T   T
  0.1077625378677585  0.9374009388104553  0.2440150587708450   T   T   T
  0.3076570109927820  0.1460971390234658  0.2486517361913674   T   T   T
  0.8387578698231379  0.1923912319889018  0.2487452717989690   T   T   T
  0.3534790116168325  0.6635731818277473  0.2490501545424871   T   T   T
  0.0927137402046542  0.1772712120373419  0.2592043473657547   T   T   T
  0.0832515028461396  0.4077149152695208  0.2592639058639235   T   T   T
  0.3205752809634001  0.4172098087380501  0.2606767147915199   T   T   T
  0.6817953455589932  0.5935585060298217  0.2925093593544886   T   T   T
  0.9063767192178627  0.5900399979795427  0.2923195688731182   T   T   T
  0.9105897061409625  0.8170814738926496  0.2925457063303604   T   T   T
  0.6461489660512796  0.3420557178723757  0.3003047483254036   T   T   T
  0.1601727460885726  0.8001034793052826  0.3007779186686870   T   T   T
  0.6956175200110993  0.8532022454951957  0.3003205279664450   T   T   T
  0.8896256140831436  0.0629436460884049  0.3106666270450748   T   T   T
  0.4378659410659523  0.3258117400780879  0.3100160667452646   T   T   T
  0.1785670843688876  0.5980072792295483  0.3194575519154423   T   T   T
  0.6617770251137641  0.0573044330567213  0.3200301509945213   T   T   T
  0.4443149168259094  0.1055782429472086  0.3198770064511804   T   T   T
  0.4001942123379683  0.8460971778698784  0.3204938765263757   T   T   T
  0.2340827378412770  0.2373208070680820  0.3544285037428197   T   T   T
  0.0034274756060412  0.2630715107007592  0.3553136719924763   T   T   T
  0.2336066477208511  0.9996901352767151  0.3520178316430818   T   T   T
  0.7671111266240850  0.2660833820666769  0.3518387449158875   T   T   T
  0.5007985887190255  0.7355204868545805  0.3532900503028881   T   T   T
  0.9752007631446036  0.4858771306072173  0.3578620355914282   T   T   T
  0.5036601789408179  0.5196657602999758  0.3583444499061172   T   T   T
  0.0151038034477241  0.9954377144416883  0.3578990581191740   T   T   T
  0.7474656282539719  0.5062283778854842  0.3713318466694099   T   T   T
  0.7572961873612537  0.7523897828054991  0.3711838159936287   T   T   T
  0.9947956503898993  0.7435807980716677  0.3712716990714740   T   T   T
 
  0.00000000E+00  0.00000000E+00  0.00000000E+00
  0.00000000E+00  0.00000000E+00  0.00000000E+00
  0.00000000E+00  0.00000000E+00  0.00000000E+00
  0.00000000E+00  0.00000000E+00  0.00000000E+00
  0.00000000E+00  0.00000000E+00  0.00000000E+00
  0.00000000E+00  0.00000000E+00  0.00000000E+00
  0.00000000E+00  0.00000000E+00  0.00000000E+00
  0.00000000E+00  0.00000000E+00  0.00000000E+00
  0.00000000E+00  0.00000000E+00  0.00000000E+00
  0.00000000E+00  0.00000000E+00  0.00000000E+00
  0.00000000E+00  0.00000000E+00  0.00000000E+00
  0.00000000E+00  0.00000000E+00  0.00000000E+00
  0.00000000E+00  0.00000000E+00  0.00000000E+00
  0.00000000E+00  0.00000000E+00  0.00000000E+00
  0.00000000E+00  0.00000000E+00  0.00000000E+00
  0.00000000E+00  0.00000000E+00  0.00000000E+00
  0.00000000E+00  0.00000000E+00  0.00000000E+00
  0.00000000E+00  0.00000000E+00  0.00000000E+00
  0.00000000E+00  0.00000000E+00  0.00000000E+00
  0.00000000E+00  0.00000000E+00  0.00000000E+00
  0.00000000E+00  0.00000000E+00  0.00000000E+00
  0.00000000E+00  0.00000000E+00  0.00000000E+00
  0.00000000E+00  0.00000000E+00  0.00000000E+00
  0.00000000E+00  0.00000000E+00  0.00000000E+00
  0.00000000E+00  0.00000000E+00  0.00000000E+00
  0.00000000E+00  0.00000000E+00  0.00000000E+00
  0.00000000E+00  0.00000000E+00  0.00000000E+00
  0.00000000E+00  0.00000000E+00  0.00000000E+00
  0.00000000E+00  0.00000000E+00  0.00000000E+00
  0.00000000E+00  0.00000000E+00  0.00000000E+00
  0.00000000E+00  0.00000000E+00  0.00000000E+00
  0.00000000E+00  0.00000000E+00  0.00000000E+00
  0.00000000E+00  0.00000000E+00  0.00000000E+00
  0.00000000E+00  0.00000000E+00  0.00000000E+00
  0.00000000E+00  0.00000000E+00  0.00000000E+00
  0.00000000E+00  0.00000000E+00  0.00000000E+00
  0.00000000E+00  0.00000000E+00  0.00000000E+00
  0.00000000E+00  0.00000000E+00  0.00000000E+00
  0.00000000E+00  0.00000000E+00  0.00000000E+00
  0.00000000E+00  0.00000000E+00  0.00000000E+00
  0.00000000E+00  0.00000000E+00  0.00000000E+00
  0.00000000E+00  0.00000000E+00  0.00000000E+00
  0.00000000E+00  0.00000000E+00  0.00000000E+00
  0.00000000E+00  0.00000000E+00  0.00000000E+00
  0.00000000E+00  0.00000000E+00  0.00000000E+00
  0.00000000E+00  0.00000000E+00  0.00000000E+00
  0.00000000E+00  0.00000000E+00  0.00000000E+00
  0.00000000E+00  0.00000000E+00  0.00000000E+00
  0.00000000E+00  0.00000000E+00  0.00000000E+00
  0.00000000E+00  0.00000000E+00  0.00000000E+00
  0.00000000E+00  0.00000000E+00  0.00000000E+00
  0.00000000E+00  0.00000000E+00  0.00000000E+00
  0.00000000E+00  0.00000000E+00  0.00000000E+00
  0.00000000E+00  0.00000000E+00  0.00000000E+00
  0.00000000E+00  0.00000000E+00  0.00000000E+00
  0.00000000E+00  0.00000000E+00  0.00000000E+00
  0.00000000E+00  0.00000000E+00  0.00000000E+00
  0.00000000E+00  0.00000000E+00  0.00000000E+00
  0.00000000E+00  0.00000000E+00  0.00000000E+00
  0.00000000E+00  0.00000000E+00  0.00000000E+00
  0.00000000E+00  0.00000000E+00  0.00000000E+00
  0.00000000E+00  0.00000000E+00  0.00000000E+00
  0.00000000E+00  0.00000000E+00  0.00000000E+00
  0.00000000E+00  0.00000000E+00  0.00000000E+00
  0.00000000E+00  0.00000000E+00  0.00000000E+00
  0.00000000E+00  0.00000000E+00  0.00000000E+00
  0.00000000E+00  0.00000000E+00  0.00000000E+00
  0.00000000E+00  0.00000000E+00  0.00000000E+00
  0.00000000E+00  0.00000000E+00  0.00000000E+00
  0.00000000E+00  0.00000000E+00  0.00000000E+00
  0.00000000E+00  0.00000000E+00  0.00000000E+00
  0.00000000E+00  0.00000000E+00  0.00000000E+00
  0.00000000E+00  0.00000000E+00  0.00000000E+00
  0.00000000E+00  0.00000000E+00  0.00000000E+00
  0.00000000E+00  0.00000000E+00  0.00000000E+00
  0.00000000E+00  0.00000000E+00  0.00000000E+00
  0.00000000E+00  0.00000000E+00  0.00000000E+00
  0.00000000E+00  0.00000000E+00  0.00000000E+00
  0.00000000E+00  0.00000000E+00  0.00000000E+00
  0.00000000E+00  0.00000000E+00  0.00000000E+00
  0.00000000E+00  0.00000000E+00  0.00000000E+00
  0.00000000E+00  0.00000000E+00  0.00000000E+00
  0.00000000E+00  0.00000000E+00  0.00000000E+00
  0.00000000E+00  0.00000000E+00  0.00000000E+00
  0.00000000E+00  0.00000000E+00  0.00000000E+00
  0.00000000E+00  0.00000000E+00  0.00000000E+00
  0.00000000E+00  0.00000000E+00  0.00000000E+00
  0.00000000E+00  0.00000000E+00  0.00000000E+00
  0.00000000E+00  0.00000000E+00  0.00000000E+00
  0.00000000E+00  0.00000000E+00  0.00000000E+00
  0.00000000E+00  0.00000000E+00  0.00000000E+00
  0.00000000E+00  0.00000000E+00  0.00000000E+00
  0.00000000E+00  0.00000000E+00  0.00000000E+00
  0.00000000E+00  0.00000000E+00  0.00000000E+00
  0.00000000E+00  0.00000000E+00  0.00000000E+00
  0.00000000E+00  0.00000000E+00  0.00000000E+00
  0.00000000E+00  0.00000000E+00  0.00000000E+00
  0.00000000E+00  0.00000000E+00  0.00000000E+00
  0.00000000E+00  0.00000000E+00  0.00000000E+00
  0.00000000E+00  0.00000000E+00  0.00000000E+00
  0.00000000E+00  0.00000000E+00  0.00000000E+00
  0.00000000E+00  0.00000000E+00  0.00000000E+00
  0.00000000E+00  0.00000000E+00  0.00000000E+00
  0.00000000E+00  0.00000000E+00  0.00000000E+00
  0.00000000E+00  0.00000000E+00  0.00000000E+00
  0.00000000E+00  0.00000000E+00  0.00000000E+00
  0.00000000E+00  0.00000000E+00  0.00000000E+00
  0.00000000E+00  0.00000000E+00  0.00000000E+00
  0.00000000E+00  0.00000000E+00  0.00000000E+00
  0.00000000E+00  0.00000000E+00  0.00000000E+00
  0.00000000E+00  0.00000000E+00  0.00000000E+00
  0.00000000E+00  0.00000000E+00  0.00000000E+00
  0.00000000E+00  0.00000000E+00  0.00000000E+00
  0.00000000E+00  0.00000000E+00  0.00000000E+00
  0.00000000E+00  0.00000000E+00  0.00000000E+00
  0.00000000E+00  0.00000000E+00  0.00000000E+00
  0.00000000E+00  0.00000000E+00  0.00000000E+00
  0.00000000E+00  0.00000000E+00  0.00000000E+00
  0.00000000E+00  0.00000000E+00  0.00000000E+00
