In O                                    
   1.00000000000000     
    14.4942117030500004    0.0000000000000000    0.0000000000000000
    -7.2471058515250002   12.5523555426710001    0.0000000000000000
     0.0000000000000000    0.0000000000000000   26.8344742987830003
   In   O 
    48    71
Selective dynamics
Direct
  0.2833268059945198  0.0163401897906823  0.1058808822919772   T   T   T
  0.2444649990583514  0.2320728606930658  0.1022346673557664   T   T   T
  0.7389150859248943  0.2210249563465325  0.1042050358268085   T   T   T
  0.9930221204101670  0.2588014374335188  0.1023199403898118   T   T   T
  0.2715831942513915  0.5103976905767809  0.1027293454699603   T   T   T
  0.4867859660425538  0.7647487616268407  0.1064448951837207   T   T   T
  0.9985496544332406  0.0069029384904482  0.1111375903250149   T   T   T
  0.0145039756036880  0.5045032151966353  0.1117712140205072   T   T   T
  0.4955509315610414  0.4891839436707457  0.1120239627620023   T   T   T
  0.5025732932502791  0.0001114050765381  0.0985104765326668   T   T   T
  0.5160401128154746  0.2386867519366191  0.1107439571799702   T   T   T
  0.7224830494588304  0.4865965835338812  0.1214552913083651   T   T   T
  0.0155988738272512  0.7347772302534352  0.1199098101766296   T   T   T
  0.2641157065120510  0.7746384658423935  0.1117821928878371   T   T   T
  0.7688353616747818  0.7796196005171296  0.1210084663704762   T   T   T
  0.7285220722374603  0.9866485546502304  0.1093545183714966   T   T   T
  0.1576530191294481  0.0928931570296143  0.2113596671734044   T   T   T
  0.9402162100189813  0.3449552368320496  0.2118988784103024   T   T   T
  0.4106253429215130  0.5633604383310029  0.2122514584115152   T   T   T
  0.9032040461915614  0.5585523728677160  0.2131358571924551   T   T   T
  0.6594804484369732  0.6003173806876987  0.2152451919105616   T   T   T
  0.9458521168545886  0.8441686955840169  0.2151312925867330   T   T   T
  0.6693845791318367  0.3305656437793800  0.2207710027179672   T   T   T
  0.1689169146703833  0.8335988382860080  0.2198879171123025   T   T   T
  0.6694030450596173  0.8353975032816479  0.2210584908120339   T   T   T
  0.1701122841308731  0.3337606095248020  0.2202165041989730   T   T   T
  0.6805668433051864  0.0691101428866716  0.2212375362897987   T   T   T
  0.4333447283488212  0.1083536617965635  0.2253804914352386   T   T   T
  0.9288720569761253  0.1041890646255439  0.2281341109150006   T   T   T
  0.3991510726845533  0.3222911433942244  0.2289211506152142   T   T   T
  0.1813066644948194  0.5749422961120274  0.2288318664592168   T   T   T
  0.3945435347506177  0.8251104390695403  0.2262269594098072   T   T   T
  0.6072285560985620  0.1703793944427119  0.3208738810146272   T   T   T
  0.8259850444062380  0.4366354054096888  0.3256807380302504   T   T   T
  0.6093320579867196  0.6805878336583362  0.3295567678929245   T   T   T
  0.0742078341203438  0.8926203863750573  0.3296642041553426   T   T   T
  0.5709851811626692  0.8918798646859614  0.3233456439233464   T   T   T
  0.3203041277535235  0.9312434881555305  0.3201287754103319   T   T   T
  0.3240297805687149  0.1619079822246761  0.3286762482549364   T   T   T
  0.8437486812733965  0.1735334605063557  0.3298940468343687   T   T   T
  0.3401819566732414  0.6605962304445114  0.3294524408225854   T   T   T
  0.8359323224006587  0.6693477147338740  0.3405311257783978   T   T   T
  0.0692124097829847  0.1563118970971544  0.3379084438534079   T   T   T
  0.3468283549002891  0.4090638155735746  0.3384413950596397   T   T   T
  0.0945888903173682  0.4339851319731665  0.3377035604029004   T   T   T
  0.6002984735599242  0.4471313092473537  0.3356084513139947   T   T   T
  0.0554353680107624  0.6514841747377176  0.3342281940266503   T   T   T
  0.8517356247799199  0.9031387534908077  0.3344719179654732   T   T   T
  0.5879891116555811  0.1623172129567294  0.0685021767207132   T   T   T
  0.3412811962300282  0.9237994201501465  0.0696432417401809   T   T   T
  0.5780301907827052  0.9135847799320302  0.0688859506008228   T   T   T
  0.8329087647777840  0.1487166205494717  0.0821168383060424   T   T   T
  0.3551659732764207  0.1821457138308915  0.0828795250791927   T   T   T
  0.3208566935617299  0.6709589609013378  0.0836806439063054   T   T   T
  0.5685813516962952  0.4018261542953709  0.0892444181251975   T   T   T
  0.1004187611890828  0.6644637033650937  0.0887632773193374   T   T   T
  0.8381158775201314  0.9334716026228378  0.0880839805375757   T   T   T
  0.0763668851721988  0.1732863709165429  0.0873456250875293   T   T   T
  0.3300355677121019  0.4012192916467185  0.0872336177204360   T   T   T
  0.1025998476405334  0.4267126519889359  0.0877026473900528   T   T   T
  0.8906597010117281  0.5614737096294178  0.1230290014529416   T   T   T
  0.6754434303694197  0.6114678711756341  0.1227894915001357   T   T   T
  0.9409730253845936  0.8276192822978530  0.1209000452513322   T   T   T
  0.1623803412467737  0.0561589040489494  0.1296839920800039   T   T   T
  0.8988364861855729  0.3409053676751768  0.1299127752370737   T   T   T
  0.4470682846821248  0.6041194227911078  0.1303720089308484   T   T   T
  0.6884231057971633  0.3237969566545829  0.1403898531861856   T   T   T
  0.6414644553397224  0.8148991956839851  0.1406583883670649   T   T   T
  0.1780280937685177  0.8616125458582857  0.1397188665376632   T   T   T
  0.4301636029454059  0.0787863923220726  0.1478278570548994   T   T   T
  0.6535123809170713  0.0737553076144764  0.1453282144891830   T   T   T
  0.4265136282914312  0.8503451599287644  0.1487756336625168   T   T   T
  0.0123608058794105  0.2514375371460815  0.1821071966788708   T   T   T
  0.2521428240605417  0.2602142584676841  0.1815856997982621   T   T   T
  0.2441832770755994  0.4901699875988186  0.1822955152625454   T   T   T
  0.9828165758241667  0.0059547303323484  0.1915408094305846   T   T   T
  0.4971395764820201  0.4749423128472046  0.1924213103581494   T   T   T
  0.0280088434034553  0.5196442781980508  0.1923010530076610   T   T   T
  0.5064198767898205  0.2743062530666478  0.1994266600812296   T   T   T
  0.2287750430220967  0.7282719004492009  0.1977666624497161   T   T   T
  0.7752890599554760  0.9990498326576400  0.1963673266050563   T   T   T
  0.7325863833303217  0.5040750730295898  0.2022721970153256   T   T   T
  0.9963615149336107  0.7268463205302353  0.2003595754545486   T   T   T
  0.7775512979011197  0.7692933902930932  0.2015592314159349   T   T   T
  0.6030940502514781  0.1567504682472816  0.2403379959974927   T   T   T
  0.5644193995874005  0.9061857578004151  0.2423095089183533   T   T   T
  0.3410634132872374  0.9405994448732073  0.2393759158991173   T   T   T
  0.8339556537621391  0.3931192593464985  0.2433594621403685   T   T   T
  0.5643195153276181  0.6703297864561222  0.2433414774763989   T   T   T
  0.1102439761652434  0.9394355889435531  0.2428261910239158   T   T   T
  0.3096135596987111  0.1477739530454372  0.2482142579994502   T   T   T
  0.8383640650670614  0.1917620015387840  0.2491934605605977   T   T   T
  0.3559161990790685  0.6619542400572911  0.2489521923034204   T   T   T
  0.0961598935172461  0.1779358713090531  0.2583591254003323   T   T   T
  0.0875817815794377  0.4078055348489542  0.2584348909291947   T   T   T
  0.3263592498077443  0.4155519170059279  0.2590080964196062   T   T   T
  0.6839297474106232  0.5923087267868112  0.2927217644583493   T   T   T
  0.9110269915273861  0.5933031286515273  0.2906811632980961   T   T   T
  0.9137795036973912  0.8186209673772566  0.2926213010491949   T   T   T
  0.6570380546278258  0.3342865691970474  0.3057169827495585   T   T   T
  0.1593717222000421  0.8049947086395548  0.3000469379550879   T   T   T
  0.6968238021360236  0.8558501276445654  0.3011723893726597   T   T   T
  0.8938805144724853  0.0622507834044512  0.3085659701599397   T   T   T
  0.4435411815573360  0.3264799123531361  0.3104725782124973   T   T   T
  0.1741708771751362  0.6092351284751274  0.3118029773212001   T   T   T
  0.6654585374792390  0.0630040858243532  0.3344492419817158   T   T   T
  0.4417538954428579  0.1033062607002648  0.3168976741473415   T   T   T
  0.3967044964962696  0.8396964448507021  0.3193075684589886   T   T   T
  0.2385445584344765  0.2411365647370829  0.3531049870420873   T   T   T
  0.0102300517696960  0.2656848963853804  0.3538528887318435   T   T   T
  0.2627074197236965  0.4941038668847497  0.3530907022036160   T   T   T
  0.2360301772178914  0.0015178835167546  0.3522974750999595   T   T   T
  0.5003044123179308  0.7337646181226205  0.3522654381150403   T   T   T
  0.9774777155429177  0.4790570171528330  0.3557999377893211   T   T   T
  0.5066725409923407  0.5191632978112324  0.3583703385735149   T   T   T
  0.0174007522539696  0.9961831290907099  0.3582297312318801   T   T   T
  0.7519786511864766  0.5071462030955800  0.3701174405235861   T   T   T
  0.7591855020221274  0.7528523097311535  0.3706949643130031   T   T   T
  0.9966603079265184  0.7419222049591383  0.3710136018373831   T   T   T
 
  0.00000000E+00  0.00000000E+00  0.00000000E+00
  0.00000000E+00  0.00000000E+00  0.00000000E+00
  0.00000000E+00  0.00000000E+00  0.00000000E+00
  0.00000000E+00  0.00000000E+00  0.00000000E+00
  0.00000000E+00  0.00000000E+00  0.00000000E+00
  0.00000000E+00  0.00000000E+00  0.00000000E+00
  0.00000000E+00  0.00000000E+00  0.00000000E+00
  0.00000000E+00  0.00000000E+00  0.00000000E+00
  0.00000000E+00  0.00000000E+00  0.00000000E+00
  0.00000000E+00  0.00000000E+00  0.00000000E+00
  0.00000000E+00  0.00000000E+00  0.00000000E+00
  0.00000000E+00  0.00000000E+00  0.00000000E+00
  0.00000000E+00  0.00000000E+00  0.00000000E+00
  0.00000000E+00  0.00000000E+00  0.00000000E+00
  0.00000000E+00  0.00000000E+00  0.00000000E+00
  0.00000000E+00  0.00000000E+00  0.00000000E+00
  0.00000000E+00  0.00000000E+00  0.00000000E+00
  0.00000000E+00  0.00000000E+00  0.00000000E+00
  0.00000000E+00  0.00000000E+00  0.00000000E+00
  0.00000000E+00  0.00000000E+00  0.00000000E+00
  0.00000000E+00  0.00000000E+00  0.00000000E+00
  0.00000000E+00  0.00000000E+00  0.00000000E+00
  0.00000000E+00  0.00000000E+00  0.00000000E+00
  0.00000000E+00  0.00000000E+00  0.00000000E+00
  0.00000000E+00  0.00000000E+00  0.00000000E+00
  0.00000000E+00  0.00000000E+00  0.00000000E+00
  0.00000000E+00  0.00000000E+00  0.00000000E+00
  0.00000000E+00  0.00000000E+00  0.00000000E+00
  0.00000000E+00  0.00000000E+00  0.00000000E+00
  0.00000000E+00  0.00000000E+00  0.00000000E+00
  0.00000000E+00  0.00000000E+00  0.00000000E+00
  0.00000000E+00  0.00000000E+00  0.00000000E+00
  0.00000000E+00  0.00000000E+00  0.00000000E+00
  0.00000000E+00  0.00000000E+00  0.00000000E+00
  0.00000000E+00  0.00000000E+00  0.00000000E+00
  0.00000000E+00  0.00000000E+00  0.00000000E+00
  0.00000000E+00  0.00000000E+00  0.00000000E+00
  0.00000000E+00  0.00000000E+00  0.00000000E+00
  0.00000000E+00  0.00000000E+00  0.00000000E+00
  0.00000000E+00  0.00000000E+00  0.00000000E+00
  0.00000000E+00  0.00000000E+00  0.00000000E+00
  0.00000000E+00  0.00000000E+00  0.00000000E+00
  0.00000000E+00  0.00000000E+00  0.00000000E+00
  0.00000000E+00  0.00000000E+00  0.00000000E+00
  0.00000000E+00  0.00000000E+00  0.00000000E+00
  0.00000000E+00  0.00000000E+00  0.00000000E+00
  0.00000000E+00  0.00000000E+00  0.00000000E+00
  0.00000000E+00  0.00000000E+00  0.00000000E+00
  0.00000000E+00  0.00000000E+00  0.00000000E+00
  0.00000000E+00  0.00000000E+00  0.00000000E+00
  0.00000000E+00  0.00000000E+00  0.00000000E+00
  0.00000000E+00  0.00000000E+00  0.00000000E+00
  0.00000000E+00  0.00000000E+00  0.00000000E+00
  0.00000000E+00  0.00000000E+00  0.00000000E+00
  0.00000000E+00  0.00000000E+00  0.00000000E+00
  0.00000000E+00  0.00000000E+00  0.00000000E+00
  0.00000000E+00  0.00000000E+00  0.00000000E+00
  0.00000000E+00  0.00000000E+00  0.00000000E+00
  0.00000000E+00  0.00000000E+00  0.00000000E+00
  0.00000000E+00  0.00000000E+00  0.00000000E+00
  0.00000000E+00  0.00000000E+00  0.00000000E+00
  0.00000000E+00  0.00000000E+00  0.00000000E+00
  0.00000000E+00  0.00000000E+00  0.00000000E+00
  0.00000000E+00  0.00000000E+00  0.00000000E+00
  0.00000000E+00  0.00000000E+00  0.00000000E+00
  0.00000000E+00  0.00000000E+00  0.00000000E+00
  0.00000000E+00  0.00000000E+00  0.00000000E+00
  0.00000000E+00  0.00000000E+00  0.00000000E+00
  0.00000000E+00  0.00000000E+00  0.00000000E+00
  0.00000000E+00  0.00000000E+00  0.00000000E+00
  0.00000000E+00  0.00000000E+00  0.00000000E+00
  0.00000000E+00  0.00000000E+00  0.00000000E+00
  0.00000000E+00  0.00000000E+00  0.00000000E+00
  0.00000000E+00  0.00000000E+00  0.00000000E+00
  0.00000000E+00  0.00000000E+00  0.00000000E+00
  0.00000000E+00  0.00000000E+00  0.00000000E+00
  0.00000000E+00  0.00000000E+00  0.00000000E+00
  0.00000000E+00  0.00000000E+00  0.00000000E+00
  0.00000000E+00  0.00000000E+00  0.00000000E+00
  0.00000000E+00  0.00000000E+00  0.00000000E+00
  0.00000000E+00  0.00000000E+00  0.00000000E+00
  0.00000000E+00  0.00000000E+00  0.00000000E+00
  0.00000000E+00  0.00000000E+00  0.00000000E+00
  0.00000000E+00  0.00000000E+00  0.00000000E+00
  0.00000000E+00  0.00000000E+00  0.00000000E+00
  0.00000000E+00  0.00000000E+00  0.00000000E+00
  0.00000000E+00  0.00000000E+00  0.00000000E+00
  0.00000000E+00  0.00000000E+00  0.00000000E+00
  0.00000000E+00  0.00000000E+00  0.00000000E+00
  0.00000000E+00  0.00000000E+00  0.00000000E+00
  0.00000000E+00  0.00000000E+00  0.00000000E+00
  0.00000000E+00  0.00000000E+00  0.00000000E+00
  0.00000000E+00  0.00000000E+00  0.00000000E+00
  0.00000000E+00  0.00000000E+00  0.00000000E+00
  0.00000000E+00  0.00000000E+00  0.00000000E+00
  0.00000000E+00  0.00000000E+00  0.00000000E+00
  0.00000000E+00  0.00000000E+00  0.00000000E+00
  0.00000000E+00  0.00000000E+00  0.00000000E+00
  0.00000000E+00  0.00000000E+00  0.00000000E+00
  0.00000000E+00  0.00000000E+00  0.00000000E+00
  0.00000000E+00  0.00000000E+00  0.00000000E+00
  0.00000000E+00  0.00000000E+00  0.00000000E+00
  0.00000000E+00  0.00000000E+00  0.00000000E+00
  0.00000000E+00  0.00000000E+00  0.00000000E+00
  0.00000000E+00  0.00000000E+00  0.00000000E+00
  0.00000000E+00  0.00000000E+00  0.00000000E+00
  0.00000000E+00  0.00000000E+00  0.00000000E+00
  0.00000000E+00  0.00000000E+00  0.00000000E+00
  0.00000000E+00  0.00000000E+00  0.00000000E+00
  0.00000000E+00  0.00000000E+00  0.00000000E+00
  0.00000000E+00  0.00000000E+00  0.00000000E+00
  0.00000000E+00  0.00000000E+00  0.00000000E+00
  0.00000000E+00  0.00000000E+00  0.00000000E+00
  0.00000000E+00  0.00000000E+00  0.00000000E+00
  0.00000000E+00  0.00000000E+00  0.00000000E+00
  0.00000000E+00  0.00000000E+00  0.00000000E+00
  0.00000000E+00  0.00000000E+00  0.00000000E+00
  0.00000000E+00  0.00000000E+00  0.00000000E+00
  0.00000000E+00  0.00000000E+00  0.00000000E+00
