H In O                                  
   1.00000000000000     
     9.6230998390600000    0.0000000000000000    0.0000000000000000
     0.0000000000000000   14.6922204141950008    0.0000000000000000
     0.0000000000000000    0.0000000000000000   26.1117985650409992
   H    In   O 
     1    36    54
Selective dynamics
Direct
  0.3333333389079982  0.2260910812900008  0.3977195574105173   T   T   T
  0.5029616389176046  0.0113904117416741  0.1044803530144919   T   T   T
  0.8304365173375206  0.1073366120094065  0.1045214472857535   T   T   T
  0.1663500140283885  0.1596081386946139  0.1076864720250222   T   T   T
  0.5003166559716093  0.2925736643743818  0.1076864720250222   T   T   T
  0.8362301426624836  0.3448451810595955  0.1045214472857535   T   T   T
  0.1637050310823933  0.4407913913273287  0.1044803530144919   T   T   T
  0.4995150336785544  0.4924504155021081  0.1073050944068745   T   T   T
  0.8332654068993967  0.6262657080172688  0.1073533559166324   T   T   T
  0.1692501620514294  0.6782755132681676  0.1044802297568450   T   T   T
  0.4974165079485685  0.7739062898008281  0.1044802297568450   T   T   T
  0.8334012531006075  0.8259160850517332  0.1073533559166324   T   T   T
  0.1671516363214434  0.9597313875668946  0.1073050944068745   T   T   T
  0.9987199373510227  0.9998314039616780  0.2154908621215690   T   T   T
  0.3345785827811978  0.1173048765101467  0.2157027805546952   T   T   T
  0.6673657791460262  0.1676259826829107  0.2089385682554062   T   T   T
  0.9993008908539717  0.2845558203860850  0.2089385682554062   T   T   T
  0.3320880772188064  0.3348769165588553  0.2157027805546952   T   T   T
  0.6679467326489752  0.4523503991073248  0.2154908621215690   T   T   T
  0.0000104693747339  0.5021335083346544  0.2086638349399878   T   T   T
  0.3340257780659703  0.6175665788011824  0.2087071487730472   T   T   T
  0.6665330014771205  0.6684768370450682  0.2162504793917029   T   T   T
  0.0001336685228774  0.7837049660239275  0.2162504793917029   T   T   T
  0.3326408819340338  0.8346152142678196  0.2087071487730472   T   T   T
  0.6666562006252640  0.9500482947343484  0.2086638349399878   T   T   T
  0.4991103453822198  0.9919844282740150  0.3176976812541824   T   T   T
  0.8297300844807465  0.1256172269902177  0.3186870778449029   T   T   T
  0.1587713540052781  0.1705569611559907  0.3172413565278548   T   T   T
  0.5078953159947197  0.2816248419130050  0.3172413565278548   T   T   T
  0.8369365755192577  0.3265645660787843  0.3186870778449029   T   T   T
  0.1675563246177781  0.4601973747949878  0.3176976812541824   T   T   T
  0.5051502917026013  0.5148726895917820  0.3211192156322325   T   T   T
  0.8315770715242032  0.6080485335002431  0.3208291641888028   T   T   T
  0.1666501768095665  0.6594531502121473  0.3178733265340286   T   T   T
  0.5000164931904315  0.7927286528568483  0.3178733265340286   T   T   T
  0.8350895884758009  0.8441332595687588  0.3208291641888028   T   T   T
  0.1615163782973967  0.9373091134772208  0.3211192156322325   T   T   T
  0.6663758386133104  0.0598898099978801  0.0632507922357591   T   T   T
  0.0002908313866876  0.3922919930701208  0.0632507922357591   T   T   T
  0.3333333300000021  0.7260908965340036  0.0633316137821580   T   T   T
  0.0226803987468173  0.0619294635326448  0.0764244461824124   T   T   T
  0.3109386074323928  0.0580059554047529  0.0765494749642831   T   T   T
  0.3557280625676051  0.3941758476632480  0.0765494749642831   T   T   T
  0.6439862712531806  0.3902523395353562  0.0764244461824124   T   T   T
  0.6892820367488864  0.7282933251066313  0.0761479840230857   T   T   T
  0.9773846232511177  0.7238884679613760  0.0761479840230857   T   T   T
  0.6893270585058777  0.2263081891504805  0.1329050359793920   T   T   T
  0.9773396014941265  0.2258736039175125  0.1329050359793920   T   T   T
  0.0224947800428736  0.5596301897504953  0.1322927131331194   T   T   T
  0.3106757666956040  0.5589523173553890  0.1324277891939201   T   T   T
  0.3559909033043939  0.8932294857126120  0.1324277891939201   T   T   T
  0.6441718899571244  0.8925516133175057  0.1322927131331194   T   T   T
  0.3333333300000021  0.2260908965339965  0.1472011148075757   T   T   T
  0.6664649126778307  0.5592710959012104  0.1461652737851929   T   T   T
  0.0002017573221673  0.8929107071667906  0.1461652737851929   T   T   T
  0.1665438906764294  0.0594423480708141  0.1746658675014977   T   T   T
  0.5001227793235685  0.3927394549971868  0.1746658675014977   T   T   T
  0.8333333300000021  0.7260908965340036  0.1741609507456549   T   T   T
  0.5188806850723590  0.0601592735209312  0.1832895776764525   T   T   T
  0.8141765147818917  0.0586112454831811  0.1832185871006079   T   T   T
  0.1477859849276389  0.3920225295470697  0.1832895776764525   T   T   T
  0.8524901552181062  0.3935705575848198  0.1832185871006079   T   T   T
  0.1851000455597799  0.7265676355117777  0.1832155372782929   T   T   T
  0.4815666144402243  0.7256141575562295  0.1832155372782929   T   T   T
  0.4817335136944031  0.2251571868796464  0.2431038461923326   T   T   T
  0.5182545790782609  0.5602816150762935  0.2426118363679372   T   T   T
  0.1849331463056010  0.2270246061883466  0.2431038461923326   T   T   T
  0.8159816893878704  0.5591202005952484  0.2425537486250182   T   T   T
  0.1484120909217369  0.8919001879917074  0.2426118363679372   T   T   T
  0.8506849806121275  0.8930616024727526  0.2425537486250182   T   T   T
  0.8333333300000021  0.2260908965339965  0.2526569004038727   T   T   T
  0.1679310621244390  0.5586712231870901  0.2513530360583648   T   T   T
  0.4987356078755590  0.8935105798809109  0.2513530360583648   T   T   T
  0.6639532761916680  0.0609139580863249  0.2801898967551451   T   T   T
  0.0027133938083299  0.3912678449816760  0.2801898967551451   T   T   T
  0.3333333300000021  0.7260908965340036  0.2800601378623840   T   T   T
  0.0177330882177991  0.0569087628360358  0.2928256425991990   T   T   T
  0.3093858283208153  0.0632720448443883  0.2943457478540966   T   T   T
  0.3572808416791826  0.3889097582236126  0.2943457478540966   T   T   T
  0.6489335817821988  0.3952730402319652  0.2928256425991990   T   T   T
  0.6888835125829048  0.7257355425632840  0.2930863950142925   T   T   T
  0.9777831474170994  0.7264462505047232  0.2930863950142925   T   T   T
  0.6882920996286742  0.2313540341364600  0.3513675948044986   T   T   T
  0.9783745603713300  0.2208277589315330  0.3513675948044986   T   T   T
  0.0235792368046437  0.5622934638709228  0.3495871954505597   T   T   T
  0.3116805087045690  0.5557872584806696  0.3496378693048542   T   T   T
  0.3549861691114274  0.8963948759083287  0.3496377790218589   T   T   T
  0.6430873370943568  0.8898886705180754  0.3495871954505597   T   T   T
  0.3333333389079982  0.2260910812900008  0.3604610116715706   T   T   T
  0.6694084130671289  0.5593659950772066  0.3631557187493580   T   T   T
  0.9972582647488675  0.8928161393117916  0.3631557187493580   T   T   T
 
  0.00000000E+00  0.00000000E+00  0.00000000E+00
  0.00000000E+00  0.00000000E+00  0.00000000E+00
  0.00000000E+00  0.00000000E+00  0.00000000E+00
  0.00000000E+00  0.00000000E+00  0.00000000E+00
  0.00000000E+00  0.00000000E+00  0.00000000E+00
  0.00000000E+00  0.00000000E+00  0.00000000E+00
  0.00000000E+00  0.00000000E+00  0.00000000E+00
  0.00000000E+00  0.00000000E+00  0.00000000E+00
  0.00000000E+00  0.00000000E+00  0.00000000E+00
  0.00000000E+00  0.00000000E+00  0.00000000E+00
  0.00000000E+00  0.00000000E+00  0.00000000E+00
  0.00000000E+00  0.00000000E+00  0.00000000E+00
  0.00000000E+00  0.00000000E+00  0.00000000E+00
  0.00000000E+00  0.00000000E+00  0.00000000E+00
  0.00000000E+00  0.00000000E+00  0.00000000E+00
  0.00000000E+00  0.00000000E+00  0.00000000E+00
  0.00000000E+00  0.00000000E+00  0.00000000E+00
  0.00000000E+00  0.00000000E+00  0.00000000E+00
  0.00000000E+00  0.00000000E+00  0.00000000E+00
  0.00000000E+00  0.00000000E+00  0.00000000E+00
  0.00000000E+00  0.00000000E+00  0.00000000E+00
  0.00000000E+00  0.00000000E+00  0.00000000E+00
  0.00000000E+00  0.00000000E+00  0.00000000E+00
  0.00000000E+00  0.00000000E+00  0.00000000E+00
  0.00000000E+00  0.00000000E+00  0.00000000E+00
  0.00000000E+00  0.00000000E+00  0.00000000E+00
  0.00000000E+00  0.00000000E+00  0.00000000E+00
  0.00000000E+00  0.00000000E+00  0.00000000E+00
  0.00000000E+00  0.00000000E+00  0.00000000E+00
  0.00000000E+00  0.00000000E+00  0.00000000E+00
  0.00000000E+00  0.00000000E+00  0.00000000E+00
  0.00000000E+00  0.00000000E+00  0.00000000E+00
  0.00000000E+00  0.00000000E+00  0.00000000E+00
  0.00000000E+00  0.00000000E+00  0.00000000E+00
  0.00000000E+00  0.00000000E+00  0.00000000E+00
  0.00000000E+00  0.00000000E+00  0.00000000E+00
  0.00000000E+00  0.00000000E+00  0.00000000E+00
  0.00000000E+00  0.00000000E+00  0.00000000E+00
  0.00000000E+00  0.00000000E+00  0.00000000E+00
  0.00000000E+00  0.00000000E+00  0.00000000E+00
  0.00000000E+00  0.00000000E+00  0.00000000E+00
  0.00000000E+00  0.00000000E+00  0.00000000E+00
  0.00000000E+00  0.00000000E+00  0.00000000E+00
  0.00000000E+00  0.00000000E+00  0.00000000E+00
  0.00000000E+00  0.00000000E+00  0.00000000E+00
  0.00000000E+00  0.00000000E+00  0.00000000E+00
  0.00000000E+00  0.00000000E+00  0.00000000E+00
  0.00000000E+00  0.00000000E+00  0.00000000E+00
  0.00000000E+00  0.00000000E+00  0.00000000E+00
  0.00000000E+00  0.00000000E+00  0.00000000E+00
  0.00000000E+00  0.00000000E+00  0.00000000E+00
  0.00000000E+00  0.00000000E+00  0.00000000E+00
  0.00000000E+00  0.00000000E+00  0.00000000E+00
  0.00000000E+00  0.00000000E+00  0.00000000E+00
  0.00000000E+00  0.00000000E+00  0.00000000E+00
  0.00000000E+00  0.00000000E+00  0.00000000E+00
  0.00000000E+00  0.00000000E+00  0.00000000E+00
  0.00000000E+00  0.00000000E+00  0.00000000E+00
  0.00000000E+00  0.00000000E+00  0.00000000E+00
  0.00000000E+00  0.00000000E+00  0.00000000E+00
  0.00000000E+00  0.00000000E+00  0.00000000E+00
  0.00000000E+00  0.00000000E+00  0.00000000E+00
  0.00000000E+00  0.00000000E+00  0.00000000E+00
  0.00000000E+00  0.00000000E+00  0.00000000E+00
  0.00000000E+00  0.00000000E+00  0.00000000E+00
  0.00000000E+00  0.00000000E+00  0.00000000E+00
  0.00000000E+00  0.00000000E+00  0.00000000E+00
  0.00000000E+00  0.00000000E+00  0.00000000E+00
  0.00000000E+00  0.00000000E+00  0.00000000E+00
  0.00000000E+00  0.00000000E+00  0.00000000E+00
  0.00000000E+00  0.00000000E+00  0.00000000E+00
  0.00000000E+00  0.00000000E+00  0.00000000E+00
  0.00000000E+00  0.00000000E+00  0.00000000E+00
  0.00000000E+00  0.00000000E+00  0.00000000E+00
  0.00000000E+00  0.00000000E+00  0.00000000E+00
  0.00000000E+00  0.00000000E+00  0.00000000E+00
  0.00000000E+00  0.00000000E+00  0.00000000E+00
  0.00000000E+00  0.00000000E+00  0.00000000E+00
  0.00000000E+00  0.00000000E+00  0.00000000E+00
  0.00000000E+00  0.00000000E+00  0.00000000E+00
  0.00000000E+00  0.00000000E+00  0.00000000E+00
  0.00000000E+00  0.00000000E+00  0.00000000E+00
  0.00000000E+00  0.00000000E+00  0.00000000E+00
  0.00000000E+00  0.00000000E+00  0.00000000E+00
  0.00000000E+00  0.00000000E+00  0.00000000E+00
  0.00000000E+00  0.00000000E+00  0.00000000E+00
  0.00000000E+00  0.00000000E+00  0.00000000E+00
  0.00000000E+00  0.00000000E+00  0.00000000E+00
  0.00000000E+00  0.00000000E+00  0.00000000E+00
  0.00000000E+00  0.00000000E+00  0.00000000E+00
  0.00000000E+00  0.00000000E+00  0.00000000E+00
