H In O                                  
   1.00000000000000     
     9.6230998390600000    0.0000000000000000    0.0000000000000000
     0.0000000000000000   14.6922204141950008    0.0000000000000000
     0.0000000000000000    0.0000000000000000   26.1117985650409992
   H    In   O 
     1    36    54
Selective dynamics
Direct
  0.0000000000000000  0.8927581829169995  0.3976711950284152   T   T   T
  0.5029116767411671  0.0115478036766512  0.1045166522526702   T   T   T
  0.8304693878841261  0.1074655135938371  0.1044997203198944   T   T   T
  0.1661539424106127  0.1591366274501089  0.1073355158269696   T   T   T
  0.5000271663223308  0.2929012850907845  0.1073137693525310   T   T   T
  0.8360248095960797  0.3448565654162091  0.1044848496890193   T   T   T
  0.1639751904039203  0.4406585676527958  0.1044848496890193   T   T   T
  0.4999728336776692  0.4926138479782133  0.1073137693525310   T   T   T
  0.8338460575893945  0.6263785056188889  0.1073355158269696   T   T   T
  0.1695306121158740  0.6780496194751608  0.1044997203198944   T   T   T
  0.4970883232588328  0.7739673293923467  0.1045166522526702   T   T   T
  0.8329366033471253  0.8263413835909378  0.1076860395416435   T   T   T
  0.1670633966528746  0.9591737494780671  0.1076860395416435   T   T   T
  0.9988361417323945  0.0015520567131508  0.2156545469465001   T   T   T
  0.3345037323172671  0.1189936717906287  0.2154504344039613   T   T   T
  0.6667880934061412  0.1689902909387508  0.2086698888611212   T   T   T
  0.0006523867766325  0.2842095887493150  0.2087619361435000   T   T   T
  0.3332394587488324  0.3350733594642140  0.2162002631235137   T   T   T
  0.6667605412511676  0.4504417736047909  0.2162002631235137   T   T   T
  0.9993476132233675  0.5013055443196827  0.2087619361435000   T   T   T
  0.3332119065938590  0.6165248421302471  0.2086698888611212   T   T   T
  0.6654962676827330  0.6665214612783692  0.2154504344039613   T   T   T
  0.0011638582676055  0.7839630763558469  0.2156545469465001   T   T   T
  0.3341300262299098  0.8342488818691570  0.2089545699870535   T   T   T
  0.6658699737700901  0.9512662511998479  0.2089545699870535   T   T   T
  0.5035797087902597  0.9933312632830317  0.3186715364518060   T   T   T
  0.8343115717669927  0.1268022491008244  0.3176382799009259   T   T   T
  0.1718886990001141  0.1814603464727021  0.3211317059839658   T   T   T
  0.4983264138056953  0.2747270698394548  0.3208306424670906   T   T   T
  0.8332533548472335  0.3262495523760456  0.3179630923766020   T   T   T
  0.1667466451527666  0.4592655806929593  0.3179630923766020   T   T   T
  0.5016735861943048  0.5107880632295431  0.3208306424670906   T   T   T
  0.8281113009998861  0.6040547865962957  0.3211317059839658   T   T   T
  0.1656884282330073  0.6587128839681734  0.3176382799009259   T   T   T
  0.4964202912097401  0.7921838697859661  0.3186715364518060   T   T   T
  0.8254399934148390  0.8371625274560687  0.3172312628379297   T   T   T
  0.1745600065851610  0.9483526056129362  0.3172312628379297   T   T   T
  0.6670503687574664  0.0588739624233820  0.0633291182233668   T   T   T
  0.0000000000000000  0.3927575665340015  0.0633865809469166   T   T   T
  0.3329496312425335  0.7266411706446211  0.0633291182233668   T   T   T
  0.0225456646074352  0.0610038590514089  0.0766101807605808   T   T   T
  0.3106146468605414  0.0568887779686807  0.0764378337551218   T   T   T
  0.3559637121154561  0.3950078578203826  0.0761990213998538   T   T   T
  0.6440362878845440  0.3905072752476205  0.0761990213998538   T   T   T
  0.6893853531394586  0.7286263550993225  0.0764378337551218   T   T   T
  0.9774543353925648  0.7245112740165942  0.0766101807605808   T   T   T
  0.6891984458361438  0.2263413329498243  0.1322564286114832   T   T   T
  0.9773470777431741  0.2256512504443498  0.1324274508506814   T   T   T
  0.0226529222568259  0.5598638826236461  0.1324274508506814   T   T   T
  0.3108015541638562  0.5591738001181717  0.1322564286114832   T   T   T
  0.3560712657460990  0.8930049642736883  0.1328938637867638   T   T   T
  0.6439287342539012  0.8925101687943148  0.1328938637867638   T   T   T
  0.3330950688705962  0.2260046133358418  0.1461397805431477   T   T   T
  0.6669049311294039  0.5595105197321542  0.1461397805431477   T   T   T
  0.0000000000000000  0.8927575665340015  0.1470936324915394   T   T   T
  0.1668579536311848  0.0593475657340185  0.1746225182185589   T   T   T
  0.5000000000000000  0.3927575665340015  0.1740947745260374   T   T   T
  0.8331420463688152  0.7261675673339846  0.1746225182185589   T   T   T
  0.5192682133726948  0.0603197175951501  0.1832457890941606   T   T   T
  0.8143515291347788  0.0588016782255055  0.1833242991413870   T   T   T
  0.1481219331766977  0.3923305411325004  0.1832624481211632   T   T   T
  0.8518780668233022  0.3931845919355026  0.1832624481211632   T   T   T
  0.1856484708652211  0.7267134548424976  0.1833242991413870   T   T   T
  0.4807317866273051  0.7251954154728532  0.1832457890941606   T   T   T
  0.4825030173928638  0.2258114545079969  0.2425191451250816   T   T   T
  0.5174969826071361  0.5597036785599989  0.2425191451250816   T   T   T
  0.1850384221028808  0.2269546997053674  0.2426196419628996   T   T   T
  0.8149615778971192  0.5585604333626284  0.2426196419628996   T   T   T
  0.1483080366405603  0.8918595161848518  0.2430259280457955   T   T   T
  0.8516919633594399  0.8936556168831512  0.2430259280457955   T   T   T
  0.8345414516210345  0.2253419525306323  0.2514390396103302   T   T   T
  0.1654585483789655  0.5601731805373638  0.2514390396103302   T   T   T
  0.5000000000000000  0.8927575665340015  0.2526776266417639   T   T   T
  0.6693024549038654  0.0579004097284603  0.2802197390717420   T   T   T
  0.0000000000000000  0.3927575665340015  0.2801444725256576   T   T   T
  0.3306975450961345  0.7276147233395427  0.2802197390717420   T   T   T
  0.0240531287240508  0.0556361225219405  0.2943409868213132   T   T   T
  0.3155446223907126  0.0619674332547886  0.2928587060004830   T   T   T
  0.3556126753067321  0.3924709195306696  0.2930880275728510   T   T   T
  0.6443873246932679  0.3930442135373334  0.2930880275728510   T   T   T
  0.6844553776092874  0.7235476998132144  0.2928587060004830   T   T   T
  0.9759468712759491  0.7298790105460625  0.2943409868213132   T   T   T
  0.6903374503428268  0.2289854207385619  0.3495638903713744   T   T   T
  0.9783503802730522  0.2223087122086132  0.3496069749224908   T   T   T
  0.0216496197269478  0.5632064208593828  0.3496069749224908   T   T   T
  0.3096625496571732  0.5565297123294342  0.3495638903713744   T   T   T
  0.3550889527242073  0.8981052279162409  0.3513199045267418   T   T   T
  0.6449110472757926  0.8874099051517621  0.3513199045267418   T   T   T
  0.3360735259584500  0.2262164238473256  0.3631044750207866   T   T   T
  0.6639264740415498  0.5592987092206705  0.3631044750207866   T   T   T
  0.0000000000000000  0.8927581829169995  0.3604233839980042   T   T   T
 
  0.00000000E+00  0.00000000E+00  0.00000000E+00
  0.00000000E+00  0.00000000E+00  0.00000000E+00
  0.00000000E+00  0.00000000E+00  0.00000000E+00
  0.00000000E+00  0.00000000E+00  0.00000000E+00
  0.00000000E+00  0.00000000E+00  0.00000000E+00
  0.00000000E+00  0.00000000E+00  0.00000000E+00
  0.00000000E+00  0.00000000E+00  0.00000000E+00
  0.00000000E+00  0.00000000E+00  0.00000000E+00
  0.00000000E+00  0.00000000E+00  0.00000000E+00
  0.00000000E+00  0.00000000E+00  0.00000000E+00
  0.00000000E+00  0.00000000E+00  0.00000000E+00
  0.00000000E+00  0.00000000E+00  0.00000000E+00
  0.00000000E+00  0.00000000E+00  0.00000000E+00
  0.00000000E+00  0.00000000E+00  0.00000000E+00
  0.00000000E+00  0.00000000E+00  0.00000000E+00
  0.00000000E+00  0.00000000E+00  0.00000000E+00
  0.00000000E+00  0.00000000E+00  0.00000000E+00
  0.00000000E+00  0.00000000E+00  0.00000000E+00
  0.00000000E+00  0.00000000E+00  0.00000000E+00
  0.00000000E+00  0.00000000E+00  0.00000000E+00
  0.00000000E+00  0.00000000E+00  0.00000000E+00
  0.00000000E+00  0.00000000E+00  0.00000000E+00
  0.00000000E+00  0.00000000E+00  0.00000000E+00
  0.00000000E+00  0.00000000E+00  0.00000000E+00
  0.00000000E+00  0.00000000E+00  0.00000000E+00
  0.00000000E+00  0.00000000E+00  0.00000000E+00
  0.00000000E+00  0.00000000E+00  0.00000000E+00
  0.00000000E+00  0.00000000E+00  0.00000000E+00
  0.00000000E+00  0.00000000E+00  0.00000000E+00
  0.00000000E+00  0.00000000E+00  0.00000000E+00
  0.00000000E+00  0.00000000E+00  0.00000000E+00
  0.00000000E+00  0.00000000E+00  0.00000000E+00
  0.00000000E+00  0.00000000E+00  0.00000000E+00
  0.00000000E+00  0.00000000E+00  0.00000000E+00
  0.00000000E+00  0.00000000E+00  0.00000000E+00
  0.00000000E+00  0.00000000E+00  0.00000000E+00
  0.00000000E+00  0.00000000E+00  0.00000000E+00
  0.00000000E+00  0.00000000E+00  0.00000000E+00
  0.00000000E+00  0.00000000E+00  0.00000000E+00
  0.00000000E+00  0.00000000E+00  0.00000000E+00
  0.00000000E+00  0.00000000E+00  0.00000000E+00
  0.00000000E+00  0.00000000E+00  0.00000000E+00
  0.00000000E+00  0.00000000E+00  0.00000000E+00
  0.00000000E+00  0.00000000E+00  0.00000000E+00
  0.00000000E+00  0.00000000E+00  0.00000000E+00
  0.00000000E+00  0.00000000E+00  0.00000000E+00
  0.00000000E+00  0.00000000E+00  0.00000000E+00
  0.00000000E+00  0.00000000E+00  0.00000000E+00
  0.00000000E+00  0.00000000E+00  0.00000000E+00
  0.00000000E+00  0.00000000E+00  0.00000000E+00
  0.00000000E+00  0.00000000E+00  0.00000000E+00
  0.00000000E+00  0.00000000E+00  0.00000000E+00
  0.00000000E+00  0.00000000E+00  0.00000000E+00
  0.00000000E+00  0.00000000E+00  0.00000000E+00
  0.00000000E+00  0.00000000E+00  0.00000000E+00
  0.00000000E+00  0.00000000E+00  0.00000000E+00
  0.00000000E+00  0.00000000E+00  0.00000000E+00
  0.00000000E+00  0.00000000E+00  0.00000000E+00
  0.00000000E+00  0.00000000E+00  0.00000000E+00
  0.00000000E+00  0.00000000E+00  0.00000000E+00
  0.00000000E+00  0.00000000E+00  0.00000000E+00
  0.00000000E+00  0.00000000E+00  0.00000000E+00
  0.00000000E+00  0.00000000E+00  0.00000000E+00
  0.00000000E+00  0.00000000E+00  0.00000000E+00
  0.00000000E+00  0.00000000E+00  0.00000000E+00
  0.00000000E+00  0.00000000E+00  0.00000000E+00
  0.00000000E+00  0.00000000E+00  0.00000000E+00
  0.00000000E+00  0.00000000E+00  0.00000000E+00
  0.00000000E+00  0.00000000E+00  0.00000000E+00
  0.00000000E+00  0.00000000E+00  0.00000000E+00
  0.00000000E+00  0.00000000E+00  0.00000000E+00
  0.00000000E+00  0.00000000E+00  0.00000000E+00
  0.00000000E+00  0.00000000E+00  0.00000000E+00
  0.00000000E+00  0.00000000E+00  0.00000000E+00
  0.00000000E+00  0.00000000E+00  0.00000000E+00
  0.00000000E+00  0.00000000E+00  0.00000000E+00
  0.00000000E+00  0.00000000E+00  0.00000000E+00
  0.00000000E+00  0.00000000E+00  0.00000000E+00
  0.00000000E+00  0.00000000E+00  0.00000000E+00
  0.00000000E+00  0.00000000E+00  0.00000000E+00
  0.00000000E+00  0.00000000E+00  0.00000000E+00
  0.00000000E+00  0.00000000E+00  0.00000000E+00
  0.00000000E+00  0.00000000E+00  0.00000000E+00
  0.00000000E+00  0.00000000E+00  0.00000000E+00
  0.00000000E+00  0.00000000E+00  0.00000000E+00
  0.00000000E+00  0.00000000E+00  0.00000000E+00
  0.00000000E+00  0.00000000E+00  0.00000000E+00
  0.00000000E+00  0.00000000E+00  0.00000000E+00
  0.00000000E+00  0.00000000E+00  0.00000000E+00
  0.00000000E+00  0.00000000E+00  0.00000000E+00
  0.00000000E+00  0.00000000E+00  0.00000000E+00
