H In O                                  
   1.00000000000000     
     9.6230998390600000    0.0000000000000000    0.0000000000000000
     0.0000000000000000   14.6922204141950008    0.0000000000000000
     0.0000000000000000    0.0000000000000000   26.1117985650409992
   H    In   O 
     1    36    54
Selective dynamics
Direct
  0.0105726321879472  0.5587345876986787  0.3919926341557416   T   T   T
  0.5028502567532656  0.0114869209294112  0.1045383029787385   T   T   T
  0.8305707579316998  0.1072179567483230  0.1045027147407785   T   T   T
  0.1666901832571715  0.1591769506594523  0.1073203528094150   T   T   T
  0.5015649168844410  0.2925920622843676  0.1067116398939732   T   T   T
  0.8361643856526014  0.3447047022844382  0.1046613189992389   T   T   T
  0.1640457209315442  0.4406249966361399  0.1048570087565624   T   T   T
  0.5000950099992962  0.4926975365816854  0.1073173064655239   T   T   T
  0.8341155549709213  0.6261019825304325  0.1069121229133528   T   T   T
  0.1692353011196583  0.6782810893805412  0.1048028842344205   T   T   T
  0.4969963622829023  0.7746179128985078  0.1039036696750705   T   T   T
  0.8334556882174964  0.8261579415307976  0.1075592230417942   T   T   T
  0.1666078516967032  0.9595415951291727  0.1073399212707528   T   T   T
 -0.0000197636794937  0.0005872912838915  0.2160845394454679   T   T   T
  0.3341491519208687  0.1167829179606786  0.2162141331238462   T   T   T
  0.6672647820531015  0.1678833460145078  0.2089299506666156   T   T   T
  0.0007147409272196  0.2833707611538137  0.2084923187610586   T   T   T
  0.3350422333360829  0.3323659058099606  0.2143515891882742   T   T   T
  0.6668660261035508  0.4505314763355041  0.2165538536009082   T   T   T
  0.9981550475791097  0.5016699439107236  0.2086950335432985   T   T   T
  0.3331310300020600  0.6166853158263463  0.2088633944811454   T   T   T
  0.6640966655558608  0.6682521213012154  0.2141327573126091   T   T   T
  0.9997161563662580  0.7833992324220740  0.2167214473904466   T   T   T
  0.3329034333713132  0.8347878555400489  0.2085236450208693   T   T   T
  0.6669260409706523  0.9508259403041296  0.2090010508490281   T   T   T
  0.4998347834185559  0.9938700107827325  0.3179823284700415   T   T   T
  0.8341524903708615  0.1261834637376333  0.3178065931800278   T   T   T
  0.1696340257111614  0.1778172478881742  0.3206887398589548   T   T   T
  0.4986028721264867  0.2729836724796769  0.3205233836263116   T   T   T
  0.8335801528607288  0.3255739271318195  0.3182974630200490   T   T   T
  0.1758309498051786  0.4523824409747611  0.3145497657246457   T   T   T
  0.5034765451415344  0.5107724880236343  0.3208776540745480   T   T   T
  0.8190318192778682  0.6147219088663858  0.3184687246107486   T   T   T
  0.1711835860423129  0.6601666913863798  0.3168221105224523   T   T   T
  0.5006338075063105  0.7949233572384160  0.3177194972504161   T   T   T
  0.8357431290752050  0.8483691737087248  0.3212257460095975   T   T   T
  0.1644749290698564  0.9414125595627306  0.3207911901127296   T   T   T
  0.6664169225918268  0.0595295206452457  0.0632899383961844   T   T   T
  0.9998932157241333  0.3933144608721140  0.0636607531112285   T   T   T
  0.3331122638358076  0.7253382572535694  0.0632611021951228   T   T   T
  0.0225519143370116  0.0617172187218650  0.0762724510330611   T   T   T
  0.3107549650841618  0.0572030950196304  0.0762901636215849   T   T   T
  0.3561341629644452  0.3951342425286786  0.0763790071529991   T   T   T
  0.6446423831204997  0.3906932440743287  0.0759360554498231   T   T   T
  0.6895217644118504  0.7286420428585247  0.0763210407371633   T   T   T
  0.9776801687577107  0.7236984743896645  0.0761405991920255   T   T   T
  0.6900149516598074  0.2263988351310597  0.1324266797510434   T   T   T
  0.9781346955096107  0.2258561313894772  0.1322938949346594   T   T   T
  0.0225294968356301  0.5597865779897987  0.1327429519751165   T   T   T
  0.3104921794781952  0.5585376076555976  0.1329618982325432   T   T   T
  0.3554758012892663  0.8928651088358427  0.1322261458307804   T   T   T
  0.6441573825402601  0.8924517278430966  0.1325769182064869   T   T   T
  0.3342058245022705  0.2263518506777743  0.1458401828874212   T   T   T
  0.6670394601171244  0.5596774986637139  0.1462033350734767   T   T   T
  0.0004691843364760  0.8925458886344251  0.1463169364800473   T   T   T
  0.1669966172438195  0.0592375113793873  0.1743733495052827   T   T   T
  0.5019109038684244  0.3927055831850277  0.1738070391062145   T   T   T
  0.8341940746940482  0.7258401269231858  0.1741605783131831   T   T   T
  0.5189632880285519  0.0600787100932256  0.1830650186250686   T   T   T
  0.8151219557843836  0.0585795745699454  0.1832198807925147   T   T   T
  0.1482879217934285  0.3928506547250126  0.1839881242945754   T   T   T
  0.8523170006206436  0.3933318729590832  0.1836633656930716   T   T   T
  0.1845089031933164  0.7253585879239071  0.1839176573506676   T   T   T
  0.4794538005170869  0.7253237443828552  0.1823417599717995   T   T   T
  0.4824065398466367  0.2245061733404960  0.2424175195234254   T   T   T
  0.5180717476568867  0.5605612350739779  0.2429868055067897   T   T   T
  0.1853656389605861  0.2273638562154838  0.2424918692522995   T   T   T
  0.8144173152705236  0.5594284489009972  0.2426998085234882   T   T   T
  0.1479732548470510  0.8904200825378678  0.2429120119910748   T   T   T
  0.8523814006565639  0.8928258788002327  0.2426979437072115   T   T   T
  0.8340556670013722  0.2266880057482264  0.2515452190222162   T   T   T
  0.1634664339031529  0.5593523498629807  0.2534260493811080   T   T   T
  0.4989999263303534  0.8937327217477651  0.2513453586812601   T   T   T
  0.6674277737772806  0.0592178596051413  0.2796809701459864   T   T   T
  0.9993943273631499  0.3961479464156177  0.2813153899849382   T   T   T
  0.3376659520599578  0.7249083053053719  0.2793588157226996   T   T   T
  0.0223055919541753  0.0583546800792126  0.2932946897736757   T   T   T
  0.3106877888849218  0.0603650876487766  0.2934271829685638   T   T   T
  0.3647260150170412  0.3930464988989649  0.2908998257790487   T   T   T
  0.6469626275663668  0.3938997143232300  0.2937703069690049   T   T   T
  0.6887843798898141  0.7297477288789139  0.2909425896845120   T   T   T
  0.9783604969802950  0.7202301499328544  0.2944354493417117   T   T   T
  0.6895763052484962  0.2283712024332068  0.3497509092409606   T   T   T
  0.9778702420998727  0.2234340087089545  0.3494505345308212   T   T   T
  0.0121197104968075  0.5610812885104138  0.3546550515343628   T   T   T
  0.3027733123794124  0.5535241475888315  0.3498315046288111   T   T   T
  0.3563248562435226  0.8961359712347402  0.3495691117594455   T   T   T
  0.6440151734449744  0.8912285254260758  0.3501404215866413   T   T   T
  0.3303975102941197  0.2314368416855278  0.3617772545912770   T   T   T
  0.6648567900542534  0.5621681335840768  0.3630431657314397   T   T   T
  0.0040024458023354  0.8881262268871274  0.3623295955356445   T   T   T
 
  0.00000000E+00  0.00000000E+00  0.00000000E+00
  0.00000000E+00  0.00000000E+00  0.00000000E+00
  0.00000000E+00  0.00000000E+00  0.00000000E+00
  0.00000000E+00  0.00000000E+00  0.00000000E+00
  0.00000000E+00  0.00000000E+00  0.00000000E+00
  0.00000000E+00  0.00000000E+00  0.00000000E+00
  0.00000000E+00  0.00000000E+00  0.00000000E+00
  0.00000000E+00  0.00000000E+00  0.00000000E+00
  0.00000000E+00  0.00000000E+00  0.00000000E+00
  0.00000000E+00  0.00000000E+00  0.00000000E+00
  0.00000000E+00  0.00000000E+00  0.00000000E+00
  0.00000000E+00  0.00000000E+00  0.00000000E+00
  0.00000000E+00  0.00000000E+00  0.00000000E+00
  0.00000000E+00  0.00000000E+00  0.00000000E+00
  0.00000000E+00  0.00000000E+00  0.00000000E+00
  0.00000000E+00  0.00000000E+00  0.00000000E+00
  0.00000000E+00  0.00000000E+00  0.00000000E+00
  0.00000000E+00  0.00000000E+00  0.00000000E+00
  0.00000000E+00  0.00000000E+00  0.00000000E+00
  0.00000000E+00  0.00000000E+00  0.00000000E+00
  0.00000000E+00  0.00000000E+00  0.00000000E+00
  0.00000000E+00  0.00000000E+00  0.00000000E+00
  0.00000000E+00  0.00000000E+00  0.00000000E+00
  0.00000000E+00  0.00000000E+00  0.00000000E+00
  0.00000000E+00  0.00000000E+00  0.00000000E+00
  0.00000000E+00  0.00000000E+00  0.00000000E+00
  0.00000000E+00  0.00000000E+00  0.00000000E+00
  0.00000000E+00  0.00000000E+00  0.00000000E+00
  0.00000000E+00  0.00000000E+00  0.00000000E+00
  0.00000000E+00  0.00000000E+00  0.00000000E+00
  0.00000000E+00  0.00000000E+00  0.00000000E+00
  0.00000000E+00  0.00000000E+00  0.00000000E+00
  0.00000000E+00  0.00000000E+00  0.00000000E+00
  0.00000000E+00  0.00000000E+00  0.00000000E+00
  0.00000000E+00  0.00000000E+00  0.00000000E+00
  0.00000000E+00  0.00000000E+00  0.00000000E+00
  0.00000000E+00  0.00000000E+00  0.00000000E+00
  0.00000000E+00  0.00000000E+00  0.00000000E+00
  0.00000000E+00  0.00000000E+00  0.00000000E+00
  0.00000000E+00  0.00000000E+00  0.00000000E+00
  0.00000000E+00  0.00000000E+00  0.00000000E+00
  0.00000000E+00  0.00000000E+00  0.00000000E+00
  0.00000000E+00  0.00000000E+00  0.00000000E+00
  0.00000000E+00  0.00000000E+00  0.00000000E+00
  0.00000000E+00  0.00000000E+00  0.00000000E+00
  0.00000000E+00  0.00000000E+00  0.00000000E+00
  0.00000000E+00  0.00000000E+00  0.00000000E+00
  0.00000000E+00  0.00000000E+00  0.00000000E+00
  0.00000000E+00  0.00000000E+00  0.00000000E+00
  0.00000000E+00  0.00000000E+00  0.00000000E+00
  0.00000000E+00  0.00000000E+00  0.00000000E+00
  0.00000000E+00  0.00000000E+00  0.00000000E+00
  0.00000000E+00  0.00000000E+00  0.00000000E+00
  0.00000000E+00  0.00000000E+00  0.00000000E+00
  0.00000000E+00  0.00000000E+00  0.00000000E+00
  0.00000000E+00  0.00000000E+00  0.00000000E+00
  0.00000000E+00  0.00000000E+00  0.00000000E+00
  0.00000000E+00  0.00000000E+00  0.00000000E+00
  0.00000000E+00  0.00000000E+00  0.00000000E+00
  0.00000000E+00  0.00000000E+00  0.00000000E+00
  0.00000000E+00  0.00000000E+00  0.00000000E+00
  0.00000000E+00  0.00000000E+00  0.00000000E+00
  0.00000000E+00  0.00000000E+00  0.00000000E+00
  0.00000000E+00  0.00000000E+00  0.00000000E+00
  0.00000000E+00  0.00000000E+00  0.00000000E+00
  0.00000000E+00  0.00000000E+00  0.00000000E+00
  0.00000000E+00  0.00000000E+00  0.00000000E+00
  0.00000000E+00  0.00000000E+00  0.00000000E+00
  0.00000000E+00  0.00000000E+00  0.00000000E+00
  0.00000000E+00  0.00000000E+00  0.00000000E+00
  0.00000000E+00  0.00000000E+00  0.00000000E+00
  0.00000000E+00  0.00000000E+00  0.00000000E+00
  0.00000000E+00  0.00000000E+00  0.00000000E+00
  0.00000000E+00  0.00000000E+00  0.00000000E+00
  0.00000000E+00  0.00000000E+00  0.00000000E+00
  0.00000000E+00  0.00000000E+00  0.00000000E+00
  0.00000000E+00  0.00000000E+00  0.00000000E+00
  0.00000000E+00  0.00000000E+00  0.00000000E+00
  0.00000000E+00  0.00000000E+00  0.00000000E+00
  0.00000000E+00  0.00000000E+00  0.00000000E+00
  0.00000000E+00  0.00000000E+00  0.00000000E+00
  0.00000000E+00  0.00000000E+00  0.00000000E+00
  0.00000000E+00  0.00000000E+00  0.00000000E+00
  0.00000000E+00  0.00000000E+00  0.00000000E+00
  0.00000000E+00  0.00000000E+00  0.00000000E+00
  0.00000000E+00  0.00000000E+00  0.00000000E+00
  0.00000000E+00  0.00000000E+00  0.00000000E+00
  0.00000000E+00  0.00000000E+00  0.00000000E+00
  0.00000000E+00  0.00000000E+00  0.00000000E+00
  0.00000000E+00  0.00000000E+00  0.00000000E+00
  0.00000000E+00  0.00000000E+00  0.00000000E+00
