H In O                                  
   1.00000000000000     
     9.6230998390600000    0.0000000000000000    0.0000000000000000
     0.0000000000000000   14.6922204141950008    0.0000000000000000
     0.0000000000000000    0.0000000000000000   26.1117985650409992
   H    In   O 
     1    36    54
Selective dynamics
Direct
  0.9917288761050393  0.2269846712177387  0.3919425403740762   T   T   T
  0.5035416251541437  0.0113130958166340  0.1038283367696129   T   T   T
  0.8306574580088245  0.1073882896639951  0.1048587311466254   T   T   T
  0.1660717722991985  0.1593286483210947  0.1070501225357899   T   T   T
  0.4994455411723556  0.2930541264242059  0.1076665239493974   T   T   T
  0.8356027667395598  0.3447709360708437  0.1048603216788847   T   T   T
  0.1630690481796552  0.4404579581152192  0.1046452517733941   T   T   T
  0.4976667453967807  0.4930883141085508  0.1065839466392725   T   T   T
  0.8328863897116644  0.6265473792243372  0.1076072835177129   T   T   T
  0.1693140458058765  0.6784480893024472  0.1043882605971431   T   T   T
  0.4968713973696652  0.7741198597510155  0.1044752904137659   T   T   T
  0.8331067541224046  0.8262495132691376  0.1074161942295417   T   T   T
  0.1665736807571545  0.9593770273792093  0.1076496280177916   T   T   T
  0.0002033666462905  0.0019835258755325  0.2167525860526761   T   T   T
  0.3362350901029919  0.1173519154245847  0.2140522641100530   T   T   T
  0.6672427413628964  0.1688644680133796  0.2090698403264953   T   T   T
  0.0019061724734561  0.2835421774502666  0.2086992940984715   T   T   T
  0.3329583964264265  0.3350277452007850  0.2169796994085634   T   T   T
  0.6646254737953926  0.4533514803094644  0.2140207720452993   T   T   T
  0.9988947456207717  0.5017176156129546  0.2084975007172456   T   T   T
  0.3324200588241310  0.6178298047096972  0.2086854544872377   T   T   T
  0.6652210023409556  0.6686565420819152  0.2163432379978704   T   T   T
  0.9996903943365649  0.7850656484254083  0.2160589796744426   T   T   T
  0.3327440146077381  0.8348573544290095  0.2088752672650724   T   T   T
  0.6670301906775085  0.9509200484859363  0.2084902566476289   T   T   T
  0.4993375242325045  0.9907209802976501  0.3176367298757033   T   T   T
  0.8299095278819213  0.1257734357017722  0.3170033499693713   T   T   T
  0.1827833919655380  0.1704697767437408  0.3185777668470192   T   T   T
  0.4981495895319464  0.2739256636515403  0.3209288329245277   T   T   T
  0.8240395373376584  0.3341582168825353  0.3145195147430343   T   T   T
  0.1664432393002854  0.4606211756768084  0.3181491376946086   T   T   T
  0.5015200510189010  0.5117802079075893  0.3203439267612638   T   T   T
  0.8299613386278827  0.6075353823523585  0.3206748054393158   T   T   T
  0.1659948990048969  0.6598461968700770  0.3175671823807338   T   T   T
  0.4996156012231807  0.7917462627188990  0.3177435391416773   T   T   T
  0.8351757369527418  0.8446365482974568  0.3209156699605023   T   T   T
  0.1638624191286780  0.9372865663459873  0.3211943157466399   T   T   T
  0.6673756854788192  0.0604840538608687  0.0630371678921355   T   T   T
 -0.0004528065536810  0.3918121717431701  0.0634797401646907   T   T   T
  0.3337164341282968  0.7255648114657448  0.0630444294438989   T   T   T
  0.0223484403838555  0.0615817739223133  0.0763397747737938   T   T   T
  0.3106444760934953  0.0570384294568279  0.0764471963999808   T   T   T
  0.3546578574003819  0.3946647766704036  0.0759460974122941   T   T   T
  0.6434239636610130  0.3905879352162097  0.0766954384946330   T   T   T
  0.6891748992845379  0.7285296246374002  0.0764317498025444   T   T   T
  0.9771485602616045  0.7239888168698048  0.0764987851271837   T   T   T
  0.6892927601789920  0.2269235660641080  0.1330986118453255   T   T   T
  0.9773944342986693  0.2256885088471516  0.1327995315131653   T   T   T
  0.0211487489647115  0.5591763008429266  0.1323025660195989   T   T   T
  0.3090191231039707  0.5592771027235821  0.1322560817806986   T   T   T
  0.3557774558774389  0.8929074024940232  0.1324860958014603   T   T   T
  0.6444095302417275  0.8932973182591263  0.1321059429325643   T   T   T
  0.3328576031353109  0.2256605463879515  0.1464244493316190   T   T   T
  0.6650688728416287  0.5592770533249005  0.1458389593349687   T   T   T
  0.9992164526832478  0.8932284408647653  0.1464833766431980   T   T   T
  0.1658602004910661  0.0595470455205474  0.1743069773299856   T   T   T
  0.4969098406112866  0.3932191991940748  0.1739278538377541   T   T   T
  0.8323759899764737  0.7265299473353274  0.1746160427642713   T   T   T
  0.5208716526011895  0.0602367562873277  0.1823562902964796   T   T   T
  0.8156735168503567  0.0602330282649716  0.1840228491010138   T   T   T
  0.1476149163244078  0.3918860015414568  0.1836643248956912   T   T   T
  0.8513787213071020  0.3924805429739098  0.1839876131530095   T   T   T
  0.1843489295517000  0.7271661483675619  0.1830818840250677   T   T   T
  0.4808494779118971  0.7254805503467947  0.1829560952304898   T   T   T
  0.4821333789880188  0.2247705640435067  0.2429598108384678   T   T   T
  0.5169518721251248  0.5609215470989870  0.2423228323088414   T   T   T
  0.1857688116920299  0.2261588388777918  0.2429091313418113   T   T   T
  0.8143230229599999  0.5581617413709015  0.2423699528214106   T   T   T
  0.1473533324123451  0.8926178670817679  0.2427109710485416   T   T   T
  0.8515952045367863  0.8952546031516279  0.2429958820497237   T   T   T
  0.8369686885009927  0.2263698163871124  0.2535136610622363   T   T   T
  0.1655437890775170  0.5589953900587152  0.2512301933792144   T   T   T
  0.5010373228910481  0.8919005237590354  0.2511259472020083   T   T   T
  0.6626762153828964  0.0611211533941674  0.2797270485398480   T   T   T
  0.0007948364936805  0.3900789977218339  0.2811533965089725   T   T   T
  0.3321256280919636  0.7266366272230513  0.2792281222528308   T   T   T
  0.0221911730502528  0.0655708430922757  0.2943822014499155   T   T   T
  0.3110659702333046  0.0551876799611019  0.2905378038508343   T   T   T
  0.3525140250915630  0.3907210993945875  0.2944825618138239   T   T   T
  0.6347001609321868  0.3917067841594530  0.2902239389483311   T   T   T
  0.6886247067387800  0.7242049863470595  0.2938006407580725   T   T   T
  0.9772350407000249  0.7280582458407641  0.2934896197000257   T   T   T
  0.6992036348233325  0.2327190414765238  0.3501903232290846   T   T   T
  0.9903612834301370  0.2246909240652494  0.3545962273808263   T   T   T
  0.0223258912133662  0.5625740663173402  0.3493121342401739   T   T   T
  0.3109379102675160  0.5580517062914199  0.3492882689239443   T   T   T
  0.3555011069259837  0.8941097273555251  0.3499064608174595   T   T   T
  0.6430887627912834  0.8892193262781015  0.3494895943437743   T   T   T
  0.3393596082377592  0.2195610096169834  0.3631972871498218   T   T   T
  0.6718184424428534  0.5503210551914142  0.3615986676508031   T   T   T
  0.9947340701321362  0.8993245809177034  0.3624770765742059   T   T   T
 
  0.00000000E+00  0.00000000E+00  0.00000000E+00
  0.00000000E+00  0.00000000E+00  0.00000000E+00
  0.00000000E+00  0.00000000E+00  0.00000000E+00
  0.00000000E+00  0.00000000E+00  0.00000000E+00
  0.00000000E+00  0.00000000E+00  0.00000000E+00
  0.00000000E+00  0.00000000E+00  0.00000000E+00
  0.00000000E+00  0.00000000E+00  0.00000000E+00
  0.00000000E+00  0.00000000E+00  0.00000000E+00
  0.00000000E+00  0.00000000E+00  0.00000000E+00
  0.00000000E+00  0.00000000E+00  0.00000000E+00
  0.00000000E+00  0.00000000E+00  0.00000000E+00
  0.00000000E+00  0.00000000E+00  0.00000000E+00
  0.00000000E+00  0.00000000E+00  0.00000000E+00
  0.00000000E+00  0.00000000E+00  0.00000000E+00
  0.00000000E+00  0.00000000E+00  0.00000000E+00
  0.00000000E+00  0.00000000E+00  0.00000000E+00
  0.00000000E+00  0.00000000E+00  0.00000000E+00
  0.00000000E+00  0.00000000E+00  0.00000000E+00
  0.00000000E+00  0.00000000E+00  0.00000000E+00
  0.00000000E+00  0.00000000E+00  0.00000000E+00
  0.00000000E+00  0.00000000E+00  0.00000000E+00
  0.00000000E+00  0.00000000E+00  0.00000000E+00
  0.00000000E+00  0.00000000E+00  0.00000000E+00
  0.00000000E+00  0.00000000E+00  0.00000000E+00
  0.00000000E+00  0.00000000E+00  0.00000000E+00
  0.00000000E+00  0.00000000E+00  0.00000000E+00
  0.00000000E+00  0.00000000E+00  0.00000000E+00
  0.00000000E+00  0.00000000E+00  0.00000000E+00
  0.00000000E+00  0.00000000E+00  0.00000000E+00
  0.00000000E+00  0.00000000E+00  0.00000000E+00
  0.00000000E+00  0.00000000E+00  0.00000000E+00
  0.00000000E+00  0.00000000E+00  0.00000000E+00
  0.00000000E+00  0.00000000E+00  0.00000000E+00
  0.00000000E+00  0.00000000E+00  0.00000000E+00
  0.00000000E+00  0.00000000E+00  0.00000000E+00
  0.00000000E+00  0.00000000E+00  0.00000000E+00
  0.00000000E+00  0.00000000E+00  0.00000000E+00
  0.00000000E+00  0.00000000E+00  0.00000000E+00
  0.00000000E+00  0.00000000E+00  0.00000000E+00
  0.00000000E+00  0.00000000E+00  0.00000000E+00
  0.00000000E+00  0.00000000E+00  0.00000000E+00
  0.00000000E+00  0.00000000E+00  0.00000000E+00
  0.00000000E+00  0.00000000E+00  0.00000000E+00
  0.00000000E+00  0.00000000E+00  0.00000000E+00
  0.00000000E+00  0.00000000E+00  0.00000000E+00
  0.00000000E+00  0.00000000E+00  0.00000000E+00
  0.00000000E+00  0.00000000E+00  0.00000000E+00
  0.00000000E+00  0.00000000E+00  0.00000000E+00
  0.00000000E+00  0.00000000E+00  0.00000000E+00
  0.00000000E+00  0.00000000E+00  0.00000000E+00
  0.00000000E+00  0.00000000E+00  0.00000000E+00
  0.00000000E+00  0.00000000E+00  0.00000000E+00
  0.00000000E+00  0.00000000E+00  0.00000000E+00
  0.00000000E+00  0.00000000E+00  0.00000000E+00
  0.00000000E+00  0.00000000E+00  0.00000000E+00
  0.00000000E+00  0.00000000E+00  0.00000000E+00
  0.00000000E+00  0.00000000E+00  0.00000000E+00
  0.00000000E+00  0.00000000E+00  0.00000000E+00
  0.00000000E+00  0.00000000E+00  0.00000000E+00
  0.00000000E+00  0.00000000E+00  0.00000000E+00
  0.00000000E+00  0.00000000E+00  0.00000000E+00
  0.00000000E+00  0.00000000E+00  0.00000000E+00
  0.00000000E+00  0.00000000E+00  0.00000000E+00
  0.00000000E+00  0.00000000E+00  0.00000000E+00
  0.00000000E+00  0.00000000E+00  0.00000000E+00
  0.00000000E+00  0.00000000E+00  0.00000000E+00
  0.00000000E+00  0.00000000E+00  0.00000000E+00
  0.00000000E+00  0.00000000E+00  0.00000000E+00
  0.00000000E+00  0.00000000E+00  0.00000000E+00
  0.00000000E+00  0.00000000E+00  0.00000000E+00
  0.00000000E+00  0.00000000E+00  0.00000000E+00
  0.00000000E+00  0.00000000E+00  0.00000000E+00
  0.00000000E+00  0.00000000E+00  0.00000000E+00
  0.00000000E+00  0.00000000E+00  0.00000000E+00
  0.00000000E+00  0.00000000E+00  0.00000000E+00
  0.00000000E+00  0.00000000E+00  0.00000000E+00
  0.00000000E+00  0.00000000E+00  0.00000000E+00
  0.00000000E+00  0.00000000E+00  0.00000000E+00
  0.00000000E+00  0.00000000E+00  0.00000000E+00
  0.00000000E+00  0.00000000E+00  0.00000000E+00
  0.00000000E+00  0.00000000E+00  0.00000000E+00
  0.00000000E+00  0.00000000E+00  0.00000000E+00
  0.00000000E+00  0.00000000E+00  0.00000000E+00
  0.00000000E+00  0.00000000E+00  0.00000000E+00
  0.00000000E+00  0.00000000E+00  0.00000000E+00
  0.00000000E+00  0.00000000E+00  0.00000000E+00
  0.00000000E+00  0.00000000E+00  0.00000000E+00
  0.00000000E+00  0.00000000E+00  0.00000000E+00
  0.00000000E+00  0.00000000E+00  0.00000000E+00
  0.00000000E+00  0.00000000E+00  0.00000000E+00
  0.00000000E+00  0.00000000E+00  0.00000000E+00
