H In O                                  
   1.00000000000000     
     9.6230998390600000    0.0000000000000000    0.0000000000000000
     0.0000000000000000   14.6922204141950008    0.0000000000000000
     0.0000000000000000    0.0000000000000000   26.1117985650409992
   H    In   O 
     1    36    54
Selective dynamics
Direct
  0.6666666778159964  0.5594239514719987  0.3975831197983830   T   T   T
  0.5025793453031003  0.0116151355828739  0.1045059332708798   T   T   T
  0.8307539846969018  0.1072333274861260  0.1045059332708798   T   T   T
  0.1668066790062082  0.1591983756893013  0.1073531257268438   T   T   T
  0.5004068369999535  0.2930269090070942  0.1073967604713642   T   T   T
  0.8361224035931576  0.3447295045523194  0.1044934642219502   T   T   T
  0.1638774645816845  0.4405438424783842  0.1045004638805965   T   T   T
  0.4996682856930992  0.4928877276445958  0.1077111286534300   T   T   T
  0.8336650443069028  0.6259607354244038  0.1077111286534300   T   T   T
  0.1694558754183113  0.6783046305906163  0.1045004638805965   T   T   T
  0.4972109264068447  0.7741189585166803  0.1044934642219502   T   T   T
  0.8329264930000486  0.8258215540619058  0.1073967604713642   T   T   T
  0.1665266609937876  0.9596500973796994  0.1073531257268438   T   T   T
 -0.0001715711343318  0.0017698746821830  0.2163075449962834   T   T   T
  0.3335049011343337  0.1170785883868169  0.2163075449962834   T   T   T
  0.6659928126578282  0.1678874304241710  0.2087071942295569   T   T   T
  0.0000346713332194  0.2832291523021703  0.2085446132039934   T   T   T
  0.3320406018265863  0.3330664186896239  0.2155288169195039   T   T   T
  0.6679521401441945  0.4507603834515129  0.2157575612729241   T   T   T
  0.0007970736960148  0.5008986145111674  0.2088163030818659   T   T   T
  0.3325362563039873  0.6179498485578325  0.2088163030818659   T   T   T
  0.6653811998558014  0.6680880896174877  0.2157575612729241   T   T   T
  0.0012927281734157  0.7857820443793764  0.2155288169195039   T   T   T
  0.3332986586667828  0.8356193107668297  0.2085446132039934   T   T   T
  0.6673405273421676  0.9509610426448296  0.2087071942295569   T   T   T
  0.4999763060123950  0.9927103387794252  0.3179621535786694   T   T   T
  0.8333570239876074  0.1261381242895748  0.3179621535786694   T   T   T
  0.1684494212421404  0.1775509295903708  0.3208079494917222   T   T   T
  0.4948369931194027  0.2706518232791675  0.3211277710013591   T   T   T
  0.8325265511732156  0.3254000249891996  0.3176348531955938   T   T   T
  0.1630038797529030  0.4590416078676173  0.3186810749528605   T   T   T
  0.4920498558334829  0.5038723595868234  0.3172274971468517   T   T   T
  0.8412834741665191  0.6149761034821765  0.3172274971468517   T   T   T
  0.1703294602470929  0.6598068652013835  0.3186810749528605   T   T   T
  0.5008067788267865  0.7934484380798003  0.3176348531955938   T   T   T
  0.8384963368805995  0.8481966397898326  0.3211277710013591   T   T   T
  0.1648839187578554  0.9412975434786300  0.3208079494917222   T   T   T
  0.6666666699999979  0.0594242365339994  0.0632890358968842   T   T   T
  0.9994582615816354  0.3933478982582436  0.0632486054222888   T   T   T
  0.3338750684183668  0.7255005648097616  0.0632486054222888   T   T   T
  0.0225826857697474  0.0614921957610592  0.0760853178366927   T   T   T
  0.3107506542302485  0.0573562773069396  0.0760853178366927   T   T   T
  0.3560581251102750  0.3951247562900196  0.0763498384614802   T   T   T
  0.6442001249677678  0.3913272905342389  0.0765138115113300   T   T   T
  0.6891332050322343  0.7275211725337665  0.0765138115113300   T   T   T
  0.9772752048897272  0.7237237067779857  0.0763498384614802   T   T   T
  0.6892433295374040  0.2264352420402579  0.1324213943018850   T   T   T
  0.9775678731871804  0.2258462160761486  0.1321888064449209   T   T   T
  0.0226096123395743  0.5596582294552878  0.1328239352103157   T   T   T
  0.3107237276604215  0.5591902436127111  0.1328239352103157   T   T   T
  0.3557654568128218  0.8930022469918495  0.1321888064449209   T   T   T
  0.6440900004625981  0.8924132210277400  0.1324213943018850   T   T   T
  0.3335345633893756  0.2261435345276884  0.1462866294952268   T   T   T
  0.6666666699999979  0.5594242365339994  0.1472368958522522   T   T   T
  0.9997987666106264  0.8927049285403095  0.1462866294952268   T   T   T
  0.1666666699999979  0.0594242365339994  0.1742542902683780   T   T   T
  0.4998218438284242  0.3928555128534275  0.1747146151710799   T   T   T
  0.8335114861715780  0.7259929502145775  0.1747146151710799   T   T   T
  0.5184157214554014  0.0598867847643891  0.1832416943242541   T   T   T
  0.8149176185445944  0.0589616883036097  0.1832416943242541   T   T   T
  0.1476136313257515  0.3918359654537224  0.1831876606213851   T   T   T
  0.8521855000484400  0.3934817386086774  0.1833036981846035   T   T   T
  0.1857196986742506  0.7270124976142828  0.1831876606213851   T   T   T
  0.4811478299515620  0.7253667244593278  0.1833036981846035   T   T   T
  0.4818180662308942  0.2252311359735253  0.2426342199113660   T   T   T
  0.5180996156472167  0.5603647499777680  0.2430653337911265   T   T   T
  0.1839852309647400  0.2264706169367766  0.2425244619724305   T   T   T
  0.8152337243527791  0.5584837230902309  0.2430653337911265   T   T   T
  0.1493480990352621  0.8923778461312214  0.2425244619724305   T   T   T
  0.8515152637691079  0.8936173270944726  0.2426342199113660   T   T   T
  0.8321224973365886  0.2268325149403677  0.2513164053681005   T   T   T
  0.1666666699999979  0.5594242365339994  0.2525608478683490   T   T   T
  0.5012108326634135  0.8920159481276301  0.2513164053681005   T   T   T
  0.6666666699999979  0.0594242365339994  0.2800439080518216   T   T   T
  0.9972373853365110  0.3943779321880386  0.2801427845862840   T   T   T
  0.3360959446634914  0.7244705308799664  0.2801427845862840   T   T   T
  0.0221748371603473  0.0590923839031029  0.2930936656010804   T   T   T
  0.3111585028396414  0.0597560891648960  0.2930936656010804   T   T   T
  0.3510097076804175  0.3901126229022444  0.2928778181183206   T   T   T
  0.6427709632003595  0.3966808749425070  0.2943906803910667   T   T   T
  0.6905623667996426  0.7221675881254982  0.2943906803910667   T   T   T
  0.9823236223195843  0.7287358401657608  0.2928778181183206   T   T   T
  0.6884202361831070  0.2298531583650143  0.3496725516092047   T   T   T
  0.9765005962269577  0.2233593716317656  0.3496505809411911   T   T   T
  0.0216757068515729  0.5648146333573079  0.3514991928264644   T   T   T
  0.3116575281394223  0.5540332695866896  0.3514991928264644   T   T   T
  0.3568328692520429  0.8954897078192304  0.3496504906581958   T   T   T
  0.6449129750618982  0.8889959210859817  0.3496725516092047   T   T   T
  0.3306977191456742  0.2258924485981579  0.3632337453897985   T   T   T
  0.6666666778159964  0.5594239514719987  0.3603600508956393   T   T   T
  0.0026356108543278  0.8929566308528381  0.3632336803728005   T   T   T
 
  0.00000000E+00  0.00000000E+00  0.00000000E+00
  0.00000000E+00  0.00000000E+00  0.00000000E+00
  0.00000000E+00  0.00000000E+00  0.00000000E+00
  0.00000000E+00  0.00000000E+00  0.00000000E+00
  0.00000000E+00  0.00000000E+00  0.00000000E+00
  0.00000000E+00  0.00000000E+00  0.00000000E+00
  0.00000000E+00  0.00000000E+00  0.00000000E+00
  0.00000000E+00  0.00000000E+00  0.00000000E+00
  0.00000000E+00  0.00000000E+00  0.00000000E+00
  0.00000000E+00  0.00000000E+00  0.00000000E+00
  0.00000000E+00  0.00000000E+00  0.00000000E+00
  0.00000000E+00  0.00000000E+00  0.00000000E+00
  0.00000000E+00  0.00000000E+00  0.00000000E+00
  0.00000000E+00  0.00000000E+00  0.00000000E+00
  0.00000000E+00  0.00000000E+00  0.00000000E+00
  0.00000000E+00  0.00000000E+00  0.00000000E+00
  0.00000000E+00  0.00000000E+00  0.00000000E+00
  0.00000000E+00  0.00000000E+00  0.00000000E+00
  0.00000000E+00  0.00000000E+00  0.00000000E+00
  0.00000000E+00  0.00000000E+00  0.00000000E+00
  0.00000000E+00  0.00000000E+00  0.00000000E+00
  0.00000000E+00  0.00000000E+00  0.00000000E+00
  0.00000000E+00  0.00000000E+00  0.00000000E+00
  0.00000000E+00  0.00000000E+00  0.00000000E+00
  0.00000000E+00  0.00000000E+00  0.00000000E+00
  0.00000000E+00  0.00000000E+00  0.00000000E+00
  0.00000000E+00  0.00000000E+00  0.00000000E+00
  0.00000000E+00  0.00000000E+00  0.00000000E+00
  0.00000000E+00  0.00000000E+00  0.00000000E+00
  0.00000000E+00  0.00000000E+00  0.00000000E+00
  0.00000000E+00  0.00000000E+00  0.00000000E+00
  0.00000000E+00  0.00000000E+00  0.00000000E+00
  0.00000000E+00  0.00000000E+00  0.00000000E+00
  0.00000000E+00  0.00000000E+00  0.00000000E+00
  0.00000000E+00  0.00000000E+00  0.00000000E+00
  0.00000000E+00  0.00000000E+00  0.00000000E+00
  0.00000000E+00  0.00000000E+00  0.00000000E+00
  0.00000000E+00  0.00000000E+00  0.00000000E+00
  0.00000000E+00  0.00000000E+00  0.00000000E+00
  0.00000000E+00  0.00000000E+00  0.00000000E+00
  0.00000000E+00  0.00000000E+00  0.00000000E+00
  0.00000000E+00  0.00000000E+00  0.00000000E+00
  0.00000000E+00  0.00000000E+00  0.00000000E+00
  0.00000000E+00  0.00000000E+00  0.00000000E+00
  0.00000000E+00  0.00000000E+00  0.00000000E+00
  0.00000000E+00  0.00000000E+00  0.00000000E+00
  0.00000000E+00  0.00000000E+00  0.00000000E+00
  0.00000000E+00  0.00000000E+00  0.00000000E+00
  0.00000000E+00  0.00000000E+00  0.00000000E+00
  0.00000000E+00  0.00000000E+00  0.00000000E+00
  0.00000000E+00  0.00000000E+00  0.00000000E+00
  0.00000000E+00  0.00000000E+00  0.00000000E+00
  0.00000000E+00  0.00000000E+00  0.00000000E+00
  0.00000000E+00  0.00000000E+00  0.00000000E+00
  0.00000000E+00  0.00000000E+00  0.00000000E+00
  0.00000000E+00  0.00000000E+00  0.00000000E+00
  0.00000000E+00  0.00000000E+00  0.00000000E+00
  0.00000000E+00  0.00000000E+00  0.00000000E+00
  0.00000000E+00  0.00000000E+00  0.00000000E+00
  0.00000000E+00  0.00000000E+00  0.00000000E+00
  0.00000000E+00  0.00000000E+00  0.00000000E+00
  0.00000000E+00  0.00000000E+00  0.00000000E+00
  0.00000000E+00  0.00000000E+00  0.00000000E+00
  0.00000000E+00  0.00000000E+00  0.00000000E+00
  0.00000000E+00  0.00000000E+00  0.00000000E+00
  0.00000000E+00  0.00000000E+00  0.00000000E+00
  0.00000000E+00  0.00000000E+00  0.00000000E+00
  0.00000000E+00  0.00000000E+00  0.00000000E+00
  0.00000000E+00  0.00000000E+00  0.00000000E+00
  0.00000000E+00  0.00000000E+00  0.00000000E+00
  0.00000000E+00  0.00000000E+00  0.00000000E+00
  0.00000000E+00  0.00000000E+00  0.00000000E+00
  0.00000000E+00  0.00000000E+00  0.00000000E+00
  0.00000000E+00  0.00000000E+00  0.00000000E+00
  0.00000000E+00  0.00000000E+00  0.00000000E+00
  0.00000000E+00  0.00000000E+00  0.00000000E+00
  0.00000000E+00  0.00000000E+00  0.00000000E+00
  0.00000000E+00  0.00000000E+00  0.00000000E+00
  0.00000000E+00  0.00000000E+00  0.00000000E+00
  0.00000000E+00  0.00000000E+00  0.00000000E+00
  0.00000000E+00  0.00000000E+00  0.00000000E+00
  0.00000000E+00  0.00000000E+00  0.00000000E+00
  0.00000000E+00  0.00000000E+00  0.00000000E+00
  0.00000000E+00  0.00000000E+00  0.00000000E+00
  0.00000000E+00  0.00000000E+00  0.00000000E+00
  0.00000000E+00  0.00000000E+00  0.00000000E+00
  0.00000000E+00  0.00000000E+00  0.00000000E+00
  0.00000000E+00  0.00000000E+00  0.00000000E+00
  0.00000000E+00  0.00000000E+00  0.00000000E+00
  0.00000000E+00  0.00000000E+00  0.00000000E+00
  0.00000000E+00  0.00000000E+00  0.00000000E+00
