H In O                                  
   1.00000000000000     
     9.6230998390600000    0.0000000000000000    0.0000000000000000
     0.0000000000000000   14.6922204141950008    0.0000000000000000
     0.0000000000000000    0.0000000000000000   26.1117985650409992
   H    In   O 
     1    36    54
Selective dynamics
Direct
  0.3232446264160071  0.5600809025152015  0.3920741759736661   T   T   T
  0.5028289706085983  0.0118147824658263  0.1044326816790799   T   T   T
  0.8305086696641800  0.1074170275070915  0.1044470172544346   T   T   T
  0.1668320680247868  0.1594492739318467  0.1072774739713661   T   T   T
  0.4997961953181979  0.2926977851515611  0.1075727749342366   T   T   T
  0.8363497839186360  0.3443582442868704  0.1038031369765338   T   T   T
  0.1639711605830985  0.4405012001867151  0.1047111524815054   T   T   T
  0.4993497460678873  0.4927594798208948  0.1069569722454917   T   T   T
  0.8330700875981839  0.6262484919289335  0.1074902526650319   T   T   T
  0.1690987097756320  0.6781716162260267  0.1048248667335148   T   T   T
  0.4972562090927480  0.7740875245458487  0.1045763243156349   T   T   T
  0.8318170169172323  0.8263757136821056  0.1067046796374660   T   T   T
  0.1664877534632666  0.9597840796728009  0.1073884105228428   T   T   T
  0.9990946780336587  0.0020030641792686  0.2162821583802790   T   T   T
  0.3332416970692293  0.1182126914362080  0.2161620263214657   T   T   T
  0.6662926092883320  0.1681779358460024  0.2089440297835249   T   T   T
  0.0004530916266349  0.2838277265108432  0.2084467839295021   T   T   T
  0.3336688914450751  0.3354179246705172  0.2167813886348719   T   T   T
  0.6693823280612364  0.4506882704007825  0.2141625672445822   T   T   T
  0.0002166740283161  0.5019177790198736  0.2088702216053205   T   T   T
  0.3352984011891214  0.6169601449945978  0.2086255928845434   T   T   T
  0.6664508665216416  0.6684877885225518  0.2167156600477724   T   T   T
  0.9982074983100873  0.7866382377242789  0.2143603261477499   T   T   T
  0.3325152742421802  0.8353868195047495  0.2083666623496678   T   T   T
  0.6659156677581332  0.9511374297702840  0.2088183293400904   T   T   T
  0.4992552860094346  0.9927790235598782  0.3178082601995622   T   T   T
  0.8332685025653406  0.1248769699424432  0.3179315596476388   T   T   T
  0.1687304559201719  0.1776741878590950  0.3209137453179314   T   T   T
  0.4976335311538214  0.2706360875747581  0.3213388533666232   T   T   T
  0.8329036139851613  0.3240201022097435  0.3176698679948052   T   T   T
  0.1623412047831696  0.4587102229412830  0.3168429784361864   T   T   T
  0.5146112157439718  0.5042322365172632  0.3185713939161950   T   T   T
  0.8301754497317685  0.6079122010378621  0.3209161567833361   T   T   T
  0.1575322877243416  0.6666428865299305  0.3144917114050961   T   T   T
  0.4994810477285476  0.7933952333566346  0.3182226385249631   T   T   T
  0.8344959980400761  0.8456230937756639  0.3205703136312427   T   T   T
  0.1634256568824090  0.9410487119031686  0.3207649726647739   T   T   T
  0.6670291467761711  0.0591149440767412  0.0631241077251123   T   T   T
  0.0003744199216366  0.3934884183565877  0.0631055332213906   T   T   T
  0.3333631871612475  0.7254006231313950  0.0636336394971257   T   T   T
  0.0226797598325994  0.0615525548546132  0.0763245254177483   T   T   T
  0.3107585172537002  0.0573729468736499  0.0762909378565451   T   T   T
  0.3557185719616130  0.3949454223337845  0.0761939803677387   T   T   T
  0.6437550700360720  0.3903764104575657  0.0763636957177922   T   T   T
  0.6886956476007147  0.7281304739796641  0.0759372052077678   T   T   T
  0.9770434634252103  0.7238082474947858  0.0764847678599277   T   T   T
  0.6891079525695277  0.2263424816454049  0.1325386282771427   T   T   T
  0.9778217428206338  0.2261439379417579  0.1320744698189301   T   T   T
  0.0227874042929229  0.5601664826999490  0.1329783450544691   T   T   T
  0.3107274082629487  0.5589882788369600  0.1327403453253313   T   T   T
  0.3551499533883539  0.8929862823380131  0.1322372892847108   T   T   T
  0.6431036462322872  0.8925712378280684  0.1323601734561558   T   T   T
  0.3328134427234370  0.2263622396574419  0.1464609128825384   T   T   T
  0.6663330577204946  0.5590680164875430  0.1462974294171734   T   T   T
  0.9990363139410628  0.8926064610774013  0.1459099075925862   T   T   T
  0.1663218182737839  0.0596047620387797  0.1744493692760749   T   T   T
  0.4991473420282365  0.3930414858556924  0.1742079901350838   T   T   T
  0.8311496919448894  0.7263158421355479  0.1738874189282542   T   T   T
  0.5179844772075071  0.0604377085766609  0.1831365563917472   T   T   T
  0.8144139466458019  0.0588115699598990  0.1829685837262973   T   T   T
  0.1489793343763303  0.3932840865311111  0.1838391919802611   T   T   T
  0.8539196023568748  0.3934383254563775  0.1822858923920987   T   T   T
  0.1848386821802835  0.7259346927630863  0.1839514319119106   T   T   T
  0.4811183994725309  0.7254238278819339  0.1835757138586881   T   T   T
  0.4809522928467663  0.2259711755704782  0.2428337140992026   T   T   T
  0.5190562753607533  0.5594024180036395  0.2428518600220943   T   T   T
  0.1852527071725771  0.2284201091647954  0.2429985394400595   T   T   T
  0.8154422480038214  0.5582308995830489  0.2430310567742422   T   T   T
  0.1481070500158426  0.8914785000961492  0.2425483019008312   T   T   T
  0.8505873716535483  0.8943723200925834  0.2424829277929092   T   T   T
  0.8343702500222850  0.2250844579515370  0.2513058083830484   T   T   T
  0.1699544571150790  0.5594340302198556  0.2533308217362955   T   T   T
  0.4990789132359267  0.8921915738672364  0.2514223883735880   T   T   T
  0.6657139129606378  0.0595978219436839  0.2795509383346290   T   T   T
  0.9959987346831927  0.3940219899638701  0.2793562159955885   T   T   T
  0.3341554163641906  0.7226754605589567  0.2811549539313810   T   T   T
  0.0225766755672678  0.0583209538603145  0.2934478233282129   T   T   T
  0.3108578165502646  0.0607581867354600  0.2934162535942437   T   T   T
  0.3551161086598412  0.3986552546983588  0.2943898215128037   T   T   T
  0.6445925581119175  0.3891094106463949  0.2908832568023130   T   T   T
  0.6861958897975702  0.7247631405739590  0.2939385711672338   T   T   T
  0.9686824062944569  0.7256611075014511  0.2908134092010394   T   T   T
  0.6892892287812860  0.2274677028640088  0.3500737445686347   T   T   T
  0.9767160923850616  0.2226938683652309  0.3495914474777975   T   T   T
  0.0309438990762741  0.5654384482612683  0.3498344590517702   T   T   T
  0.3216667473564230  0.5577710484925591  0.3546934957725000   T   T   T
  0.3553177444822078  0.8952918000312891  0.3493529328131687   T   T   T
  0.6435251236944626  0.8907314079862626  0.3496459407720229   T   T   T
  0.3291693078842727  0.2311486262892344  0.3624865586262558   T   T   T
  0.6691262811469832  0.5561122038943777  0.3631395080322269   T   T   T
  0.0030530674959307  0.8869316483791601  0.3618372827577935   T   T   T
 
  0.00000000E+00  0.00000000E+00  0.00000000E+00
  0.00000000E+00  0.00000000E+00  0.00000000E+00
  0.00000000E+00  0.00000000E+00  0.00000000E+00
  0.00000000E+00  0.00000000E+00  0.00000000E+00
  0.00000000E+00  0.00000000E+00  0.00000000E+00
  0.00000000E+00  0.00000000E+00  0.00000000E+00
  0.00000000E+00  0.00000000E+00  0.00000000E+00
  0.00000000E+00  0.00000000E+00  0.00000000E+00
  0.00000000E+00  0.00000000E+00  0.00000000E+00
  0.00000000E+00  0.00000000E+00  0.00000000E+00
  0.00000000E+00  0.00000000E+00  0.00000000E+00
  0.00000000E+00  0.00000000E+00  0.00000000E+00
  0.00000000E+00  0.00000000E+00  0.00000000E+00
  0.00000000E+00  0.00000000E+00  0.00000000E+00
  0.00000000E+00  0.00000000E+00  0.00000000E+00
  0.00000000E+00  0.00000000E+00  0.00000000E+00
  0.00000000E+00  0.00000000E+00  0.00000000E+00
  0.00000000E+00  0.00000000E+00  0.00000000E+00
  0.00000000E+00  0.00000000E+00  0.00000000E+00
  0.00000000E+00  0.00000000E+00  0.00000000E+00
  0.00000000E+00  0.00000000E+00  0.00000000E+00
  0.00000000E+00  0.00000000E+00  0.00000000E+00
  0.00000000E+00  0.00000000E+00  0.00000000E+00
  0.00000000E+00  0.00000000E+00  0.00000000E+00
  0.00000000E+00  0.00000000E+00  0.00000000E+00
  0.00000000E+00  0.00000000E+00  0.00000000E+00
  0.00000000E+00  0.00000000E+00  0.00000000E+00
  0.00000000E+00  0.00000000E+00  0.00000000E+00
  0.00000000E+00  0.00000000E+00  0.00000000E+00
  0.00000000E+00  0.00000000E+00  0.00000000E+00
  0.00000000E+00  0.00000000E+00  0.00000000E+00
  0.00000000E+00  0.00000000E+00  0.00000000E+00
  0.00000000E+00  0.00000000E+00  0.00000000E+00
  0.00000000E+00  0.00000000E+00  0.00000000E+00
  0.00000000E+00  0.00000000E+00  0.00000000E+00
  0.00000000E+00  0.00000000E+00  0.00000000E+00
  0.00000000E+00  0.00000000E+00  0.00000000E+00
  0.00000000E+00  0.00000000E+00  0.00000000E+00
  0.00000000E+00  0.00000000E+00  0.00000000E+00
  0.00000000E+00  0.00000000E+00  0.00000000E+00
  0.00000000E+00  0.00000000E+00  0.00000000E+00
  0.00000000E+00  0.00000000E+00  0.00000000E+00
  0.00000000E+00  0.00000000E+00  0.00000000E+00
  0.00000000E+00  0.00000000E+00  0.00000000E+00
  0.00000000E+00  0.00000000E+00  0.00000000E+00
  0.00000000E+00  0.00000000E+00  0.00000000E+00
  0.00000000E+00  0.00000000E+00  0.00000000E+00
  0.00000000E+00  0.00000000E+00  0.00000000E+00
  0.00000000E+00  0.00000000E+00  0.00000000E+00
  0.00000000E+00  0.00000000E+00  0.00000000E+00
  0.00000000E+00  0.00000000E+00  0.00000000E+00
  0.00000000E+00  0.00000000E+00  0.00000000E+00
  0.00000000E+00  0.00000000E+00  0.00000000E+00
  0.00000000E+00  0.00000000E+00  0.00000000E+00
  0.00000000E+00  0.00000000E+00  0.00000000E+00
  0.00000000E+00  0.00000000E+00  0.00000000E+00
  0.00000000E+00  0.00000000E+00  0.00000000E+00
  0.00000000E+00  0.00000000E+00  0.00000000E+00
  0.00000000E+00  0.00000000E+00  0.00000000E+00
  0.00000000E+00  0.00000000E+00  0.00000000E+00
  0.00000000E+00  0.00000000E+00  0.00000000E+00
  0.00000000E+00  0.00000000E+00  0.00000000E+00
  0.00000000E+00  0.00000000E+00  0.00000000E+00
  0.00000000E+00  0.00000000E+00  0.00000000E+00
  0.00000000E+00  0.00000000E+00  0.00000000E+00
  0.00000000E+00  0.00000000E+00  0.00000000E+00
  0.00000000E+00  0.00000000E+00  0.00000000E+00
  0.00000000E+00  0.00000000E+00  0.00000000E+00
  0.00000000E+00  0.00000000E+00  0.00000000E+00
  0.00000000E+00  0.00000000E+00  0.00000000E+00
  0.00000000E+00  0.00000000E+00  0.00000000E+00
  0.00000000E+00  0.00000000E+00  0.00000000E+00
  0.00000000E+00  0.00000000E+00  0.00000000E+00
  0.00000000E+00  0.00000000E+00  0.00000000E+00
  0.00000000E+00  0.00000000E+00  0.00000000E+00
  0.00000000E+00  0.00000000E+00  0.00000000E+00
  0.00000000E+00  0.00000000E+00  0.00000000E+00
  0.00000000E+00  0.00000000E+00  0.00000000E+00
  0.00000000E+00  0.00000000E+00  0.00000000E+00
  0.00000000E+00  0.00000000E+00  0.00000000E+00
  0.00000000E+00  0.00000000E+00  0.00000000E+00
  0.00000000E+00  0.00000000E+00  0.00000000E+00
  0.00000000E+00  0.00000000E+00  0.00000000E+00
  0.00000000E+00  0.00000000E+00  0.00000000E+00
  0.00000000E+00  0.00000000E+00  0.00000000E+00
  0.00000000E+00  0.00000000E+00  0.00000000E+00
  0.00000000E+00  0.00000000E+00  0.00000000E+00
  0.00000000E+00  0.00000000E+00  0.00000000E+00
  0.00000000E+00  0.00000000E+00  0.00000000E+00
  0.00000000E+00  0.00000000E+00  0.00000000E+00
  0.00000000E+00  0.00000000E+00  0.00000000E+00
