H In O                                  
   1.00000000000000     
     9.6230998390600000    0.0000000000000000    0.0000000000000000
     0.0000000000000000   14.6922204141950008    0.0000000000000000
     0.0000000000000000    0.0000000000000000   26.1117985650409992
   H    In   O 
     1    36    54
Selective dynamics
Direct
  0.3420874631735089  0.8919271562619081  0.3918957647855803   T   T   T
  0.5032017784522493  0.0116098840469511  0.1047936477317999   T   T   T
  0.8301214555586942  0.1077474616383284  0.1038668716661506   T   T   T
  0.1667950105204571  0.1596542006997593  0.1076122975591772   T   T   T
  0.5001721927204584  0.2927199948368208  0.1073719373832412   T   T   T
  0.8365212402082275  0.3446654511772032  0.1044217360273512   T   T   T
  0.1637962049047881  0.4403705505974687  0.1043458362778164   T   T   T
  0.5002205375601310  0.4924731540579945  0.1074289524955401   T   T   T
  0.8355941253926022  0.6257359012232155  0.1066212749349327   T   T   T
  0.1702069672532504  0.6783219547126462  0.1046519708970707   T   T   T
  0.4975299851769019  0.7743173026870340  0.1048618267831874   T   T   T
  0.8336998255580570  0.8258965285239936  0.1077255530823365   T   T   T
  0.1676601012160227  0.9595510422081294  0.1070003016218477   T   T   T
  0.9972170996340486  0.0013543122764313  0.2140111065114151   T   T   T
  0.3330465134523147  0.1167609246294445  0.2166563852600332   T   T   T
  0.6660582564363269  0.1682556861181010  0.2084795883908653   T   T   T
  0.0005211417605419  0.2839944714596468  0.2090574984871700   T   T   T
  0.3335167547432564  0.3339670061228943  0.2160628828989697   T   T   T
  0.6679568503323738  0.4501432370789047  0.2161732414771730   T   T   T
  0.0008082973345367  0.5011122691807637  0.2087078169854104   T   T   T
  0.3344842944513321  0.6168533680885764  0.2085344773447293   T   T   T
  0.6684886524992977  0.6655845088999764  0.2140461889420293   T   T   T
  0.0004693187431232  0.7836197395758711  0.2168786784323631   T   T   T
  0.3314940584677002  0.8351528107907721  0.2087595505023879   T   T   T
  0.6661389944263121  0.9502690044940769  0.2092110722332918   T   T   T
  0.5033318321813954  0.9932493796527804  0.3170553376079995   T   T   T
  0.8337726890969476  0.1280342600311754  0.3176421615190398   T   T   T
  0.1695523047616940  0.1811985644105626  0.3212033902001370   T   T   T
  0.4978568080108167  0.2743062904719623  0.3209218031206823   T   T   T
  0.8335872667924968  0.3271769270374025  0.3178008732114468   T   T   T
  0.1675896323341220  0.4591940413195287  0.3175604722868923   T   T   T
  0.5037378008745396  0.5113314612233865  0.3207277458501184   T   T   T
  0.8318420350244141  0.6070448430629021  0.3203949145842530   T   T   T
  0.1669770185736973  0.6584330843041811  0.3182236654748781   T   T   T
  0.5089286674257523  0.7849823881346421  0.3145686631863482   T   T   T
  0.8353481348983827  0.8446151386913189  0.3209350334294416   T   T   T
  0.1506505024988758  0.9481207523416587  0.3185594191344337   T   T   T
  0.6666616454494099  0.0582780794809603  0.0629837677686437   T   T   T
  0.9995517732303277  0.3932127253511032  0.0629350002107690   T   T   T
  0.3337005878688233  0.7270364152128038  0.0634827588922718   T   T   T
  0.0230313500044755  0.0619359710820222  0.0765113051139510   T   T   T
  0.3113246892163327  0.0573289998445565  0.0763762703742431   T   T   T
  0.3560818574373633  0.3948556978073191  0.0764183517339033   T   T   T
  0.6441654066553218  0.3904030566833359  0.0764696007321722   T   T   T
  0.6897711569125933  0.7284195466471101  0.0767960330771024   T   T   T
  0.9785105135095151  0.7241027399291727  0.0760372015268640   T   T   T
  0.6889949671211330  0.2256723477701384  0.1320698663720999   T   T   T
  0.9774918277444501  0.2259324890297796  0.1326303566954645   T   T   T
  0.0242776504022131  0.5594680454252172  0.1322590594420266   T   T   T
  0.3118443162980310  0.5594879320027237  0.1323195980458407   T   T   T
  0.3561564206624174  0.8932501918162344  0.1329080094660662   T   T   T
  0.6440199616866108  0.8921339838294764  0.1332478419440506   T   T   T
  0.3340564773986697  0.2257283548443910  0.1464106471170035   T   T   T
  0.6681789446982308  0.5594686988893974  0.1458000478506615   T   T   T
  0.0006587068627949  0.8931793171951149  0.1463548539269385   T   T   T
  0.1674163068810612  0.0592362883269677  0.1742685129156567   T   T   T
  0.5006357315757092  0.3924669226173896  0.1744868087878041   T   T   T
  0.8362874682120431  0.7255965062834993  0.1739246907083492   T   T   T
  0.5178858047204010  0.0588974686505349  0.1839519296804741   T   T   T
  0.8124053868107997  0.0587045732930469  0.1824012653736439   T   T   T
  0.1487493451615838  0.3916610647049596  0.1830652886736562   T   T   T
  0.8525455563108533  0.3933573725121378  0.1828985647234657   T   T   T
  0.1858333524175234  0.7268854703340263  0.1836189305274362   T   T   T
  0.4817504408499702  0.7262235076287793  0.1839041567670700   T   T   T
  0.4814017642149589  0.2236741274983441  0.2429767971449723   T   T   T
  0.5190767007381213  0.5606310140702783  0.2423942928699511   T   T   T
  0.1860717532572505  0.2262338192128991  0.2427588503018839   T   T   T
  0.8160769270136620  0.5579113564375270  0.2423458250793712   T   T   T
  0.1475902000663481  0.8925267353481657  0.2429374554360443   T   T   T
  0.8513336508015589  0.8939126519569895  0.2429691226393434   T   T   T
  0.8319948354772521  0.2270131054984615  0.2511864435352203   T   T   T
  0.1676080400035088  0.5599196185934223  0.2512690238792799   T   T   T
  0.4963315044901588  0.8926680362352613  0.2535355486170365   T   T   T
  0.6702588321361116  0.0578166130201733  0.2797510355344326   T   T   T
  0.0011384150826250  0.3922925708159644  0.2792646777890818   T   T   T
  0.3326367039137695  0.7289199066182092  0.2811364248735297   T   T   T
  0.0220335226344924  0.0633395575158200  0.2906303320917995   T   T   T
  0.3108837947892346  0.0532022406841230  0.2943304774060648   T   T   T
  0.3561964217322974  0.3909631999961186  0.2934934462999724   T   T   T
  0.6445426440812643  0.3945004640231389  0.2936495757355405   T   T   T
  0.6981941594884344  0.7270070440148403  0.2903514424720651   T   T   T
  0.9804659621073721  0.7278457953855604  0.2943039570819897   T   T   T
  0.6901162434052234  0.2296516048530948  0.3494830107166755   T   T   T
  0.9777006151833851  0.2245858166868409  0.3497512920493496   T   T   T
  0.0226097789772650  0.5609774771021193  0.3493429964875061   T   T   T
  0.3113080739814094  0.5565460435497068  0.3492237528846777   T   T   T
  0.3435100326056737  0.8940459521355711  0.3545314850752322   T   T   T
  0.6344522389226250  0.8862799041762066  0.3502008630536563   T   T   T
  0.3384244763533879  0.2195785200633355  0.3625042929927180   T   T   T
  0.6623172269460212  0.5679223992626822  0.3618097412683144   T   T   T
  0.9945492456422581  0.8983060097455500  0.3631753727101098   T   T   T
 
  0.00000000E+00  0.00000000E+00  0.00000000E+00
  0.00000000E+00  0.00000000E+00  0.00000000E+00
  0.00000000E+00  0.00000000E+00  0.00000000E+00
  0.00000000E+00  0.00000000E+00  0.00000000E+00
  0.00000000E+00  0.00000000E+00  0.00000000E+00
  0.00000000E+00  0.00000000E+00  0.00000000E+00
  0.00000000E+00  0.00000000E+00  0.00000000E+00
  0.00000000E+00  0.00000000E+00  0.00000000E+00
  0.00000000E+00  0.00000000E+00  0.00000000E+00
  0.00000000E+00  0.00000000E+00  0.00000000E+00
  0.00000000E+00  0.00000000E+00  0.00000000E+00
  0.00000000E+00  0.00000000E+00  0.00000000E+00
  0.00000000E+00  0.00000000E+00  0.00000000E+00
  0.00000000E+00  0.00000000E+00  0.00000000E+00
  0.00000000E+00  0.00000000E+00  0.00000000E+00
  0.00000000E+00  0.00000000E+00  0.00000000E+00
  0.00000000E+00  0.00000000E+00  0.00000000E+00
  0.00000000E+00  0.00000000E+00  0.00000000E+00
  0.00000000E+00  0.00000000E+00  0.00000000E+00
  0.00000000E+00  0.00000000E+00  0.00000000E+00
  0.00000000E+00  0.00000000E+00  0.00000000E+00
  0.00000000E+00  0.00000000E+00  0.00000000E+00
  0.00000000E+00  0.00000000E+00  0.00000000E+00
  0.00000000E+00  0.00000000E+00  0.00000000E+00
  0.00000000E+00  0.00000000E+00  0.00000000E+00
  0.00000000E+00  0.00000000E+00  0.00000000E+00
  0.00000000E+00  0.00000000E+00  0.00000000E+00
  0.00000000E+00  0.00000000E+00  0.00000000E+00
  0.00000000E+00  0.00000000E+00  0.00000000E+00
  0.00000000E+00  0.00000000E+00  0.00000000E+00
  0.00000000E+00  0.00000000E+00  0.00000000E+00
  0.00000000E+00  0.00000000E+00  0.00000000E+00
  0.00000000E+00  0.00000000E+00  0.00000000E+00
  0.00000000E+00  0.00000000E+00  0.00000000E+00
  0.00000000E+00  0.00000000E+00  0.00000000E+00
  0.00000000E+00  0.00000000E+00  0.00000000E+00
  0.00000000E+00  0.00000000E+00  0.00000000E+00
  0.00000000E+00  0.00000000E+00  0.00000000E+00
  0.00000000E+00  0.00000000E+00  0.00000000E+00
  0.00000000E+00  0.00000000E+00  0.00000000E+00
  0.00000000E+00  0.00000000E+00  0.00000000E+00
  0.00000000E+00  0.00000000E+00  0.00000000E+00
  0.00000000E+00  0.00000000E+00  0.00000000E+00
  0.00000000E+00  0.00000000E+00  0.00000000E+00
  0.00000000E+00  0.00000000E+00  0.00000000E+00
  0.00000000E+00  0.00000000E+00  0.00000000E+00
  0.00000000E+00  0.00000000E+00  0.00000000E+00
  0.00000000E+00  0.00000000E+00  0.00000000E+00
  0.00000000E+00  0.00000000E+00  0.00000000E+00
  0.00000000E+00  0.00000000E+00  0.00000000E+00
  0.00000000E+00  0.00000000E+00  0.00000000E+00
  0.00000000E+00  0.00000000E+00  0.00000000E+00
  0.00000000E+00  0.00000000E+00  0.00000000E+00
  0.00000000E+00  0.00000000E+00  0.00000000E+00
  0.00000000E+00  0.00000000E+00  0.00000000E+00
  0.00000000E+00  0.00000000E+00  0.00000000E+00
  0.00000000E+00  0.00000000E+00  0.00000000E+00
  0.00000000E+00  0.00000000E+00  0.00000000E+00
  0.00000000E+00  0.00000000E+00  0.00000000E+00
  0.00000000E+00  0.00000000E+00  0.00000000E+00
  0.00000000E+00  0.00000000E+00  0.00000000E+00
  0.00000000E+00  0.00000000E+00  0.00000000E+00
  0.00000000E+00  0.00000000E+00  0.00000000E+00
  0.00000000E+00  0.00000000E+00  0.00000000E+00
  0.00000000E+00  0.00000000E+00  0.00000000E+00
  0.00000000E+00  0.00000000E+00  0.00000000E+00
  0.00000000E+00  0.00000000E+00  0.00000000E+00
  0.00000000E+00  0.00000000E+00  0.00000000E+00
  0.00000000E+00  0.00000000E+00  0.00000000E+00
  0.00000000E+00  0.00000000E+00  0.00000000E+00
  0.00000000E+00  0.00000000E+00  0.00000000E+00
  0.00000000E+00  0.00000000E+00  0.00000000E+00
  0.00000000E+00  0.00000000E+00  0.00000000E+00
  0.00000000E+00  0.00000000E+00  0.00000000E+00
  0.00000000E+00  0.00000000E+00  0.00000000E+00
  0.00000000E+00  0.00000000E+00  0.00000000E+00
  0.00000000E+00  0.00000000E+00  0.00000000E+00
  0.00000000E+00  0.00000000E+00  0.00000000E+00
  0.00000000E+00  0.00000000E+00  0.00000000E+00
  0.00000000E+00  0.00000000E+00  0.00000000E+00
  0.00000000E+00  0.00000000E+00  0.00000000E+00
  0.00000000E+00  0.00000000E+00  0.00000000E+00
  0.00000000E+00  0.00000000E+00  0.00000000E+00
  0.00000000E+00  0.00000000E+00  0.00000000E+00
  0.00000000E+00  0.00000000E+00  0.00000000E+00
  0.00000000E+00  0.00000000E+00  0.00000000E+00
  0.00000000E+00  0.00000000E+00  0.00000000E+00
  0.00000000E+00  0.00000000E+00  0.00000000E+00
  0.00000000E+00  0.00000000E+00  0.00000000E+00
  0.00000000E+00  0.00000000E+00  0.00000000E+00
  0.00000000E+00  0.00000000E+00  0.00000000E+00
