H In O                                  
   1.00000000000000     
     9.6230998390600000    0.0000000000000000    0.0000000000000000
     0.0000000000000000   14.6922204141950008    0.0000000000000000
     0.0000000000000000    0.0000000000000000   26.1117985650409992
   H    In   O 
     1    36    54
Selective dynamics
Direct
  0.6765282319674171  0.2254756195930935  0.3920276448864405   T   T   T
  0.5031853566839913  0.0116082312558165  0.1046351327301596   T   T   T
  0.8308799243475222  0.1074426579891944  0.1048559897977307   T   T   T
  0.1670320606954152  0.1592854208136027  0.1074740272740508   T   T   T
  0.5005355829615141  0.2928659128306227  0.1069979680365724   T   T   T
  0.8360275615467768  0.3448593236444897  0.1047615880799622   T   T   T
  0.1634025090270194  0.4411563941807782  0.1038042550447087   T   T   T
  0.5000850556870577  0.4928072341723406  0.1076226144845211   T   T   T
  0.8332986818408349  0.6261708027687056  0.1073506791323791   T   T   T
  0.1695703788667337  0.6781713016241772  0.1044785249940137   T   T   T
  0.4971999234975476  0.7737522410372090  0.1043823376239519   T   T   T
  0.8336033169656552  0.8258790336234885  0.1074953768229991   T   T   T
  0.1683832319969840  0.9593358437319154  0.1066315569595506   T   T   T
  0.0017979117793479  0.9988132598768221  0.2142190724265483   T   T   T
  0.3336169218275213  0.1170235152655922  0.2167596314303685   T   T   T
  0.6646934482660145  0.1685466865683244  0.2087002407334186   T   T   T
  0.9996938617382343  0.2833598455971707  0.2089669869248409   T   T   T
  0.3306752080695788  0.3348251128680317  0.2141093126286208   T   T   T
  0.6665032143833778  0.4502141754381974  0.2167025980136659   T   T   T
  0.9995331830348801  0.5014547890826923  0.2085167055317931   T   T   T
  0.3338066651125839  0.6174449296238821  0.2089249475532537   T   T   T
  0.6667260672748780  0.6671771729009446  0.2160540974209826   T   T   T
  0.0009798470577510  0.7833891970172063  0.2162582071301141   T   T   T
  0.3341409157069166  0.8345086999997607  0.2087411879687661   T   T   T
  0.6675728737983577  0.9502450881993427  0.2085369001134159   T   T   T
  0.5004192913808964  0.9920205710112947  0.3182379972829387   T   T   T
  0.8425633546738497  0.1186468618621432  0.3144599554648337   T   T   T
  0.1698307431947695  0.1775769002816183  0.3209684019733301   T   T   T
  0.4849365144850437  0.2815729097845726  0.3185259228467174   T   T   T
  0.8375237383180177  0.3267212374815688  0.3168508244023819   T   T   T
  0.1670806232926649  0.4615497931815360  0.3177014453561842   T   T   T
  0.5027009609594658  0.5149787137510219  0.3212934750547901   T   T   T
  0.8312217179372130  0.6079464791174384  0.3208952522301410   T   T   T
  0.1668196589994567  0.6605011899493261  0.3178147850818893   T   T   T
  0.5006101541322869  0.7927292776263744  0.3177000710964424   T   T   T
  0.8362986796681408  0.8444590834958134  0.3207158480187848   T   T   T
  0.1652164842943714  0.9395485671571672  0.3204934711023492   T   T   T
  0.6669742808144105  0.0599691727030592  0.0635361543805023   T   T   T
  0.9993689163936587  0.3920554326525631  0.0630765510797334   T   T   T
  0.3330854441897372  0.7263139954458957  0.0630695636098237   T   T   T
  0.0229252203121923  0.0617265134414049  0.0765372833287220   T   T   T
  0.3116733473461405  0.0575755832464691  0.0759283253157083   T   T   T
  0.3561033481945200  0.3952011971363552  0.0763700433328856   T   T   T
  0.6443278338104752  0.3905474095351462  0.0762308613454255   T   T   T
  0.6894185443395967  0.7283521133627269  0.0763274930808591   T   T   T
  0.9773381321724022  0.7239251265030673  0.0763612294111099   T   T   T
  0.6891684258268883  0.2264712227804203  0.1327859441566388   T   T   T
  0.9771848931567835  0.2253021622380317  0.1330219561762676   T   T   T
  0.0221663468604669  0.5593080707444399  0.1321703759718963   T   T   T
  0.3107414550484236  0.5591450461945723  0.1325778927464280   T   T   T
  0.3571262839730200  0.8930572079445298  0.1322806099387058   T   T   T
  0.6449017996802879  0.8927255434922159  0.1323300407647566   T   T   T
  0.3337510781024018  0.2264498288349278  0.1463551326830360   T   T   T
  0.6672247334457252  0.5591610051101078  0.1464292691884025   T   T   T
  0.0011277357800701  0.8930446282746154  0.1459015471253011   T   T   T
  0.1689665320308078  0.0591801513768982  0.1738873218749872   T   T   T
  0.5008288351266938  0.3926214298582492  0.1742610206708113   T   T   T
  0.8337711187796738  0.7258430636528603  0.1744905208298031   T   T   T
  0.5189760109737355  0.0601609000442563  0.1835962602379800   T   T   T
  0.8150822309839734  0.0595854509535422  0.1839828723298266   T   T   T
  0.1459729637118979  0.3919699809512841  0.1822947067674944   T   T   T
  0.8511021747279613  0.3920862794007446  0.1838913999381217   T   T   T
  0.1856692187043375  0.7267351364394523  0.1829489512960524   T   T   T
  0.4819842500868685  0.7251182592196079  0.1830801890147739   T   T   T
  0.4809437548878704  0.2260688646292196  0.2429087578261692   T   T   T
  0.5190751004843910  0.5594999421912425  0.2427835794589544   T   T   T
  0.1847072090258498  0.2272522276806580  0.2430255670103855   T   T   T
  0.8148397081141447  0.5570540948784322  0.2429959788658507   T   T   T
  0.1493266355342803  0.8910844180696149  0.2423846072497734   T   T   T
  0.8521190350341515  0.8940129183352968  0.2424906567370330   T   T   T
  0.8298962928001686  0.2259975697606132  0.2533866100808101   T   T   T
  0.1656361664695400  0.5602591347135162  0.2512258711434652   T   T   T
  0.5008526452751401  0.8933944075227255  0.2513635614182170   T   T   T
  0.6658321665886046  0.0626660035487575  0.2811969781211017   T   T   T
  0.0041156397175702  0.3914191326367868  0.2794341256134872   T   T   T
  0.3343056407709254  0.7257730399590651  0.2793852091751652   T   T   T
  0.0315548283018583  0.0597421511467080  0.2907183747958784   T   T   T
  0.3135901237882814  0.0607149335937351  0.2940217584419509   T   T   T
  0.3553814368460665  0.3964615663276044  0.2908879196936010   T   T   T
  0.6448164787459051  0.3868318700357831  0.2944390899209525   T   T   T
  0.6892297307007598  0.7246813672534341  0.2933724805743503   T   T   T
  0.9775290443655835  0.7272975420511744  0.2935147447148518   T   T   T
  0.6780582100270072  0.2278022503140523  0.3546654135624003   T   T   T
  0.9689744653443896  0.2198891677866163  0.3499054538687235   T   T   T
  0.0233252990580935  0.5628685661971671  0.3495589220564721   T   T   T
  0.3107942143515513  0.5580962949449718  0.3500161273595310   T   T   T
  0.3562092148385866  0.8945347345487369  0.3496066623888153   T   T   T
  0.6444562561412329  0.8900981382135734  0.3493790616590589   T   T   T
  0.3302342294277356  0.2298913219831294  0.3631844055262667   T   T   T
  0.6711217249475475  0.5542777844083819  0.3625161771051141   T   T   T
  0.9965462372185275  0.8989078194153005  0.3618513928729866   T   T   T
 
  0.00000000E+00  0.00000000E+00  0.00000000E+00
  0.00000000E+00  0.00000000E+00  0.00000000E+00
  0.00000000E+00  0.00000000E+00  0.00000000E+00
  0.00000000E+00  0.00000000E+00  0.00000000E+00
  0.00000000E+00  0.00000000E+00  0.00000000E+00
  0.00000000E+00  0.00000000E+00  0.00000000E+00
  0.00000000E+00  0.00000000E+00  0.00000000E+00
  0.00000000E+00  0.00000000E+00  0.00000000E+00
  0.00000000E+00  0.00000000E+00  0.00000000E+00
  0.00000000E+00  0.00000000E+00  0.00000000E+00
  0.00000000E+00  0.00000000E+00  0.00000000E+00
  0.00000000E+00  0.00000000E+00  0.00000000E+00
  0.00000000E+00  0.00000000E+00  0.00000000E+00
  0.00000000E+00  0.00000000E+00  0.00000000E+00
  0.00000000E+00  0.00000000E+00  0.00000000E+00
  0.00000000E+00  0.00000000E+00  0.00000000E+00
  0.00000000E+00  0.00000000E+00  0.00000000E+00
  0.00000000E+00  0.00000000E+00  0.00000000E+00
  0.00000000E+00  0.00000000E+00  0.00000000E+00
  0.00000000E+00  0.00000000E+00  0.00000000E+00
  0.00000000E+00  0.00000000E+00  0.00000000E+00
  0.00000000E+00  0.00000000E+00  0.00000000E+00
  0.00000000E+00  0.00000000E+00  0.00000000E+00
  0.00000000E+00  0.00000000E+00  0.00000000E+00
  0.00000000E+00  0.00000000E+00  0.00000000E+00
  0.00000000E+00  0.00000000E+00  0.00000000E+00
  0.00000000E+00  0.00000000E+00  0.00000000E+00
  0.00000000E+00  0.00000000E+00  0.00000000E+00
  0.00000000E+00  0.00000000E+00  0.00000000E+00
  0.00000000E+00  0.00000000E+00  0.00000000E+00
  0.00000000E+00  0.00000000E+00  0.00000000E+00
  0.00000000E+00  0.00000000E+00  0.00000000E+00
  0.00000000E+00  0.00000000E+00  0.00000000E+00
  0.00000000E+00  0.00000000E+00  0.00000000E+00
  0.00000000E+00  0.00000000E+00  0.00000000E+00
  0.00000000E+00  0.00000000E+00  0.00000000E+00
  0.00000000E+00  0.00000000E+00  0.00000000E+00
  0.00000000E+00  0.00000000E+00  0.00000000E+00
  0.00000000E+00  0.00000000E+00  0.00000000E+00
  0.00000000E+00  0.00000000E+00  0.00000000E+00
  0.00000000E+00  0.00000000E+00  0.00000000E+00
  0.00000000E+00  0.00000000E+00  0.00000000E+00
  0.00000000E+00  0.00000000E+00  0.00000000E+00
  0.00000000E+00  0.00000000E+00  0.00000000E+00
  0.00000000E+00  0.00000000E+00  0.00000000E+00
  0.00000000E+00  0.00000000E+00  0.00000000E+00
  0.00000000E+00  0.00000000E+00  0.00000000E+00
  0.00000000E+00  0.00000000E+00  0.00000000E+00
  0.00000000E+00  0.00000000E+00  0.00000000E+00
  0.00000000E+00  0.00000000E+00  0.00000000E+00
  0.00000000E+00  0.00000000E+00  0.00000000E+00
  0.00000000E+00  0.00000000E+00  0.00000000E+00
  0.00000000E+00  0.00000000E+00  0.00000000E+00
  0.00000000E+00  0.00000000E+00  0.00000000E+00
  0.00000000E+00  0.00000000E+00  0.00000000E+00
  0.00000000E+00  0.00000000E+00  0.00000000E+00
  0.00000000E+00  0.00000000E+00  0.00000000E+00
  0.00000000E+00  0.00000000E+00  0.00000000E+00
  0.00000000E+00  0.00000000E+00  0.00000000E+00
  0.00000000E+00  0.00000000E+00  0.00000000E+00
  0.00000000E+00  0.00000000E+00  0.00000000E+00
  0.00000000E+00  0.00000000E+00  0.00000000E+00
  0.00000000E+00  0.00000000E+00  0.00000000E+00
  0.00000000E+00  0.00000000E+00  0.00000000E+00
  0.00000000E+00  0.00000000E+00  0.00000000E+00
  0.00000000E+00  0.00000000E+00  0.00000000E+00
  0.00000000E+00  0.00000000E+00  0.00000000E+00
  0.00000000E+00  0.00000000E+00  0.00000000E+00
  0.00000000E+00  0.00000000E+00  0.00000000E+00
  0.00000000E+00  0.00000000E+00  0.00000000E+00
  0.00000000E+00  0.00000000E+00  0.00000000E+00
  0.00000000E+00  0.00000000E+00  0.00000000E+00
  0.00000000E+00  0.00000000E+00  0.00000000E+00
  0.00000000E+00  0.00000000E+00  0.00000000E+00
  0.00000000E+00  0.00000000E+00  0.00000000E+00
  0.00000000E+00  0.00000000E+00  0.00000000E+00
  0.00000000E+00  0.00000000E+00  0.00000000E+00
  0.00000000E+00  0.00000000E+00  0.00000000E+00
  0.00000000E+00  0.00000000E+00  0.00000000E+00
  0.00000000E+00  0.00000000E+00  0.00000000E+00
  0.00000000E+00  0.00000000E+00  0.00000000E+00
  0.00000000E+00  0.00000000E+00  0.00000000E+00
  0.00000000E+00  0.00000000E+00  0.00000000E+00
  0.00000000E+00  0.00000000E+00  0.00000000E+00
  0.00000000E+00  0.00000000E+00  0.00000000E+00
  0.00000000E+00  0.00000000E+00  0.00000000E+00
  0.00000000E+00  0.00000000E+00  0.00000000E+00
  0.00000000E+00  0.00000000E+00  0.00000000E+00
  0.00000000E+00  0.00000000E+00  0.00000000E+00
  0.00000000E+00  0.00000000E+00  0.00000000E+00
  0.00000000E+00  0.00000000E+00  0.00000000E+00
