H In O                                  
   1.00000000000000     
     9.6230998390600000    0.0000000000000000    0.0000000000000000
     0.0000000000000000   14.6922204141950008    0.0000000000000000
     0.0000000000000000    0.0000000000000000   26.1117985650409992
   H    In   O 
     1    36    54
Selective dynamics
Direct
  0.6575902175015569  0.8934758671247917  0.3920046009723611   T   T   T
  0.5027062466595521  0.0115956969068855  0.1048049202736880   T   T   T
  0.8302260282449199  0.1072903822766144  0.1045524844749040   T   T   T
  0.1647965989360451  0.1595833584498169  0.1065756571820722   T   T   T
  0.4997322650373333  0.2931088638678868  0.1075932989539933   T   T   T
  0.8361101540973935  0.3450242402581908  0.1042923654751450   T   T   T
  0.1634363371833720  0.4407678526469123  0.1043876793799696   T   T   T
  0.4999117458117586  0.4929082048708674  0.1072836807378764   T   T   T
  0.8331897625050578  0.6260526602482860  0.1077101449664537   T   T   T
  0.1700532336269724  0.6778224983143748  0.1037907099089187   T   T   T
  0.4973213216447959  0.7740884492021999  0.1047094378983108   T   T   T
  0.8326568325401879  0.8261347698228085  0.1070973555361839   T   T   T
  0.1664150003006135  0.9595556959939260  0.1076417645441992   T   T   T
  0.9995833420782403  0.0016048737331463  0.2167772447016789   T   T   T
  0.3315421408886475  0.1199912311064542  0.2141559834728736   T   T   T
  0.6656698071156307  0.1687045164607170  0.2084347083705790   T   T   T
  0.9992003434815303  0.2843354728318311  0.2086977742442363   T   T   T
  0.3321212415857340  0.3354098921768985  0.2162910352292336   T   T   T
  0.6665852308505819  0.4516444684598797  0.2160273228234190   T   T   T
  0.9995226369398027  0.5014674976850784  0.2089600659471277   T   T   T
  0.3339516573116049  0.6173610323385692  0.2084509461560901   T   T   T
  0.6667086719454349  0.6688146815784816  0.2168146908633132   T   T   T
  0.0027543424450001  0.7839554714428993  0.2141796907246301   T   T   T
  0.3337606352755464  0.8354518050357684  0.2089849829844136   T   T   T
  0.6686163353733990  0.9504138395008247  0.2087349660093291   T   T   T
  0.4907024046141109  0.0004777977993891  0.3145476506143591   T   T   T
  0.8329584569965064  0.1268631824686640  0.3181667248575709   T   T   T
  0.1683024022756705  0.1786963749356564  0.3204935090336195   T   T   T
  0.4969230373023706  0.2742778708248322  0.3207352134806671   T   T   T
  0.8327708862408996  0.3262176077274747  0.3175907364409852   T   T   T
  0.1666894846298566  0.4582641148290874  0.3178321074723809   T   T   T
  0.5022433438045899  0.5110580223949945  0.3209713170883234   T   T   T
  0.8305774598064208  0.6036893353385552  0.3213156147247364   T   T   T
  0.1661791426906150  0.6572935298583623  0.3176335308554983   T   T   T
  0.4958177237785662  0.7923833613614896  0.3169825937309106   T   T   T
  0.8482964721255939  0.8370917248154750  0.3185890316624505   T   T   T
  0.1636167779533975  0.9410623027448594  0.3210058738592009   T   T   T
  0.6666600681097375  0.0586672599544276  0.0633862936196747   T   T   T
  0.0002374816706149  0.3924739246146219  0.0629011206186859   T   T   T
  0.3338136282740097  0.7270531758506382  0.0629541996389714   T   T   T
  0.0218048139420579  0.0611398664126870  0.0759288194363033   T   T   T
  0.3104056019846030  0.0571752934881767  0.0766198056791527   T   T   T
  0.3558551293414381  0.3949579675310750  0.0764524056955852   T   T   T
  0.6438563850809165  0.3906610250372341  0.0764660030458152   T   T   T
  0.6890866757051261  0.7283566939873208  0.0763204307173440   T   T   T
  0.9771436252818478  0.7236856734623235  0.0765098912383869   T   T   T
  0.6883241653313044  0.2261256546127279  0.1322542699271215   T   T   T
  0.9759950353908413  0.2257842690036690  0.1321805719192513   T   T   T
  0.0225693204396433  0.5595886159759114  0.1325526360978126   T   T   T
  0.3109788151087708  0.5596955733154317  0.1320737450703970   T   T   T
  0.3562600177135219  0.8936227756572848  0.1330939951014713   T   T   T
  0.6439996362082164  0.8925373872559051  0.1327986352317201   T   T   T
  0.3319179432334347  0.2259083716399737  0.1459248104561910   T   T   T
  0.6659913762958753  0.5597151173151167  0.1464578504413250   T   T   T
  0.9995762054483748  0.8924211510361055  0.1464528417676817   T   T   T
  0.1640850083946738  0.0597541766517174  0.1739183554363402   T   T   T
  0.4992498196565360  0.3931843674605150  0.1745334062611868   T   T   T
  0.8324000762803179  0.7262870212296094  0.1743687467095535   T   T   T
  0.5182265969233676  0.0594012800380519  0.1839113698716004   T   T   T
  0.8142727827176192  0.0586831798760025  0.1835758992630542   T   T   T
  0.1475641248265677  0.3920708738617660  0.1828629973679378   T   T   T
  0.8513390281963529  0.3936896802583858  0.1830300459366850   T   T   T
  0.1874502542996286  0.7269074869845752  0.1823011707585457   T   T   T
  0.4821866937084536  0.7267448422974374  0.1838348573149649   T   T   T
  0.4811393756182189  0.2248451980886758  0.2424573779668894   T   T   T
  0.5185213687336087  0.5618857251919526  0.2430436072977866   T   T   T
  0.1839470660518995  0.2277688756758115  0.2424316718023081   T   T   T
  0.8141002165727109  0.5592704325519879  0.2427811630267687   T   T   T
  0.1486441295513301  0.8914634774188099  0.2430301499117777   T   T   T
  0.8522790228495245  0.8927765076695861  0.2429442550706561   T   T   T
  0.8324982567466280  0.2254466025979527  0.2512956143464072   T   T   T
  0.1680469641620645  0.5584028730421612  0.2511814183466755   T   T   T
  0.5033803297487516  0.8930169505029987  0.2534268494373403   T   T   T
  0.6672257254421031  0.0564911571291530  0.2811677716759519   T   T   T
  0.9990411233392387  0.3932444366305273  0.2792991069007465   T   T   T
  0.3293268291491292  0.7275944759576591  0.2795213919414166   T   T   T
  0.0195018846447658  0.0576573462796290  0.2941622818263140   T   T   T
  0.3015526974825911  0.0587672988369899  0.2904683019882698   T   T   T
  0.3558365610431977  0.3912183941491247  0.2936619636706305   T   T   T
  0.6440536756476342  0.3944146041444521  0.2934306986787222   T   T   T
  0.6883632232903667  0.7321074594713042  0.2945489435849599   T   T   T
  0.9777858556735993  0.7220559039450803  0.2908114938087223   T   T   T
  0.6890512321114448  0.2289499202003580  0.3492862932184316   T   T   T
  0.9773819401702154  0.2242431447605726  0.3494078216207867   T   T   T
  0.0225143475555288  0.5605636694867404  0.3498818203304744   T   T   T
  0.3100629921366375  0.5560692759601009  0.3494831145579638   T   T   T
  0.3645503342738814  0.8992797990308893  0.3500561017662001   T   T   T
  0.6556590601658029  0.8914018189874175  0.3546266567822245   T   T   T
  0.3375072787919627  0.2187152777847325  0.3618467642321885   T   T   T
  0.6618540642643105  0.5652804851292894  0.3626797631150974   T   T   T
  0.0038913599526473  0.8877786572784159  0.3631932056108375   T   T   T
 
  0.00000000E+00  0.00000000E+00  0.00000000E+00
  0.00000000E+00  0.00000000E+00  0.00000000E+00
  0.00000000E+00  0.00000000E+00  0.00000000E+00
  0.00000000E+00  0.00000000E+00  0.00000000E+00
  0.00000000E+00  0.00000000E+00  0.00000000E+00
  0.00000000E+00  0.00000000E+00  0.00000000E+00
  0.00000000E+00  0.00000000E+00  0.00000000E+00
  0.00000000E+00  0.00000000E+00  0.00000000E+00
  0.00000000E+00  0.00000000E+00  0.00000000E+00
  0.00000000E+00  0.00000000E+00  0.00000000E+00
  0.00000000E+00  0.00000000E+00  0.00000000E+00
  0.00000000E+00  0.00000000E+00  0.00000000E+00
  0.00000000E+00  0.00000000E+00  0.00000000E+00
  0.00000000E+00  0.00000000E+00  0.00000000E+00
  0.00000000E+00  0.00000000E+00  0.00000000E+00
  0.00000000E+00  0.00000000E+00  0.00000000E+00
  0.00000000E+00  0.00000000E+00  0.00000000E+00
  0.00000000E+00  0.00000000E+00  0.00000000E+00
  0.00000000E+00  0.00000000E+00  0.00000000E+00
  0.00000000E+00  0.00000000E+00  0.00000000E+00
  0.00000000E+00  0.00000000E+00  0.00000000E+00
  0.00000000E+00  0.00000000E+00  0.00000000E+00
  0.00000000E+00  0.00000000E+00  0.00000000E+00
  0.00000000E+00  0.00000000E+00  0.00000000E+00
  0.00000000E+00  0.00000000E+00  0.00000000E+00
  0.00000000E+00  0.00000000E+00  0.00000000E+00
  0.00000000E+00  0.00000000E+00  0.00000000E+00
  0.00000000E+00  0.00000000E+00  0.00000000E+00
  0.00000000E+00  0.00000000E+00  0.00000000E+00
  0.00000000E+00  0.00000000E+00  0.00000000E+00
  0.00000000E+00  0.00000000E+00  0.00000000E+00
  0.00000000E+00  0.00000000E+00  0.00000000E+00
  0.00000000E+00  0.00000000E+00  0.00000000E+00
  0.00000000E+00  0.00000000E+00  0.00000000E+00
  0.00000000E+00  0.00000000E+00  0.00000000E+00
  0.00000000E+00  0.00000000E+00  0.00000000E+00
  0.00000000E+00  0.00000000E+00  0.00000000E+00
  0.00000000E+00  0.00000000E+00  0.00000000E+00
  0.00000000E+00  0.00000000E+00  0.00000000E+00
  0.00000000E+00  0.00000000E+00  0.00000000E+00
  0.00000000E+00  0.00000000E+00  0.00000000E+00
  0.00000000E+00  0.00000000E+00  0.00000000E+00
  0.00000000E+00  0.00000000E+00  0.00000000E+00
  0.00000000E+00  0.00000000E+00  0.00000000E+00
  0.00000000E+00  0.00000000E+00  0.00000000E+00
  0.00000000E+00  0.00000000E+00  0.00000000E+00
  0.00000000E+00  0.00000000E+00  0.00000000E+00
  0.00000000E+00  0.00000000E+00  0.00000000E+00
  0.00000000E+00  0.00000000E+00  0.00000000E+00
  0.00000000E+00  0.00000000E+00  0.00000000E+00
  0.00000000E+00  0.00000000E+00  0.00000000E+00
  0.00000000E+00  0.00000000E+00  0.00000000E+00
  0.00000000E+00  0.00000000E+00  0.00000000E+00
  0.00000000E+00  0.00000000E+00  0.00000000E+00
  0.00000000E+00  0.00000000E+00  0.00000000E+00
  0.00000000E+00  0.00000000E+00  0.00000000E+00
  0.00000000E+00  0.00000000E+00  0.00000000E+00
  0.00000000E+00  0.00000000E+00  0.00000000E+00
  0.00000000E+00  0.00000000E+00  0.00000000E+00
  0.00000000E+00  0.00000000E+00  0.00000000E+00
  0.00000000E+00  0.00000000E+00  0.00000000E+00
  0.00000000E+00  0.00000000E+00  0.00000000E+00
  0.00000000E+00  0.00000000E+00  0.00000000E+00
  0.00000000E+00  0.00000000E+00  0.00000000E+00
  0.00000000E+00  0.00000000E+00  0.00000000E+00
  0.00000000E+00  0.00000000E+00  0.00000000E+00
  0.00000000E+00  0.00000000E+00  0.00000000E+00
  0.00000000E+00  0.00000000E+00  0.00000000E+00
  0.00000000E+00  0.00000000E+00  0.00000000E+00
  0.00000000E+00  0.00000000E+00  0.00000000E+00
  0.00000000E+00  0.00000000E+00  0.00000000E+00
  0.00000000E+00  0.00000000E+00  0.00000000E+00
  0.00000000E+00  0.00000000E+00  0.00000000E+00
  0.00000000E+00  0.00000000E+00  0.00000000E+00
  0.00000000E+00  0.00000000E+00  0.00000000E+00
  0.00000000E+00  0.00000000E+00  0.00000000E+00
  0.00000000E+00  0.00000000E+00  0.00000000E+00
  0.00000000E+00  0.00000000E+00  0.00000000E+00
  0.00000000E+00  0.00000000E+00  0.00000000E+00
  0.00000000E+00  0.00000000E+00  0.00000000E+00
  0.00000000E+00  0.00000000E+00  0.00000000E+00
  0.00000000E+00  0.00000000E+00  0.00000000E+00
  0.00000000E+00  0.00000000E+00  0.00000000E+00
  0.00000000E+00  0.00000000E+00  0.00000000E+00
  0.00000000E+00  0.00000000E+00  0.00000000E+00
  0.00000000E+00  0.00000000E+00  0.00000000E+00
  0.00000000E+00  0.00000000E+00  0.00000000E+00
  0.00000000E+00  0.00000000E+00  0.00000000E+00
  0.00000000E+00  0.00000000E+00  0.00000000E+00
  0.00000000E+00  0.00000000E+00  0.00000000E+00
  0.00000000E+00  0.00000000E+00  0.00000000E+00
