In O                                    
   1.00000000000000     
     9.6230998390600000    0.0000000000000000    0.0000000000000000
     0.0000000000000000   14.6922204141950008    0.0000000000000000
     0.0000000000000000    0.0000000000000000   26.1117985650409992
   In   O 
    36    54
Selective dynamics
Direct
  0.5023561115626524  0.0112118906690442  0.1050585876844843   T   T   T
  0.8309772184373497  0.1076365723999557  0.1050585876844843   T   T   T
  0.1663245281039161  0.1593100946773369  0.1076133268505078   T   T   T
  0.5003421418960818  0.2928717083916587  0.1076133268505078   T   T   T
  0.8356894415626545  0.3445452206690462  0.1050585876844843   T   T   T
  0.1643105584373455  0.4409699123999587  0.1050585876844843   T   T   T
  0.4996578581039182  0.4926434246773391  0.1076133268505078   T   T   T
  0.8336754718960839  0.6262050383916605  0.1076133268505078   T   T   T
  0.1690227815626503  0.6778785606690424  0.1050585876844843   T   T   T
  0.4976438884373476  0.7743032423999533  0.1050585876844843   T   T   T
  0.8329911881039203  0.8259767546773414  0.1076133268505078   T   T   T
  0.1670088118960797  0.9595383783916634  0.1076133268505078   T   T   T
 -0.0002310045753699  0.0013658330349162  0.2163593966379344   T   T   T
  0.3335643345753720  0.1174826300340836  0.2163593966379344   T   T   T
  0.6664356654246280  0.1680325030349142  0.2091876424660691   T   T   T
  0.0002310045753699  0.2841493000340816  0.2091876424660691   T   T   T
  0.3331023254246322  0.3346991630349183  0.2163593966379344   T   T   T
  0.6668976745753679  0.4508159700340866  0.2163593966379344   T   T   T
 -0.0002310045753699  0.5013658330349162  0.2091876424660691   T   T   T
  0.3335643345753720  0.6174826300340837  0.2091876424660691   T   T   T
  0.6664356654246280  0.6680325030349141  0.2163593966379344   T   T   T
  0.0002310045753699  0.7841493000340816  0.2163593966379344   T   T   T
  0.3331023254246322  0.8346991630349183  0.2091876424660691   T   T   T
  0.6668976745753679  0.9508159700340866  0.2091876424660691   T   T   T
  0.4996578581039182 -0.0073565753226609  0.3179337122534958   T   T   T
  0.8336754718960839  0.1262050383916608  0.3179337122534958   T   T   T
  0.1690227815626503  0.1778785606690421  0.3204884514195191   T   T   T
  0.4976438884373476  0.2743032423999537  0.3204884514195191   T   T   T
  0.8329911881039203  0.3259767546773412  0.3179337122534958   T   T   T
  0.1670088118960797  0.4595383783916637  0.3179337122534958   T   T   T
  0.5023561115626524  0.5112118906690445  0.3204884514195191   T   T   T
  0.8309772184373497  0.6076365723999554  0.3204884514195191   T   T   T
  0.1663245281039161  0.6593100946773373  0.3179337122534958   T   T   T
  0.5003421418960818  0.7928717083916584  0.3179337122534958   T   T   T
  0.8356894415626545  0.8445452206690466  0.3204884514195191   T   T   T
  0.1643105584373455  0.9409699123999583  0.3204884514195191   T   T   T
  0.6666666699999979  0.0594242365339994  0.0641054951759968   T   T   T
  0.0000000000000000  0.3927575665340015  0.0641054951759968   T   T   T
  0.3333333300000021  0.7260908965340036  0.0641054951759968   T   T   T
  0.0226952302209276  0.0624813899001288  0.0761258811363864   T   T   T
  0.3106381097790682  0.0563670831678700  0.0761258811363864   T   T   T
  0.3560285602209297  0.3958147199001310  0.0761258811363864   T   T   T
  0.6439714397790705  0.3897004131678720  0.0761258811363864   T   T   T
  0.6893618902209316  0.7291480499001328  0.0761258811363864   T   T   T
  0.9773047697790725  0.7230337431678744  0.0761258811363864   T   T   T
  0.6892546003715379  0.2261560970586075  0.1327026840938275   T   T   T
  0.9774120596284663  0.2260256960093855  0.1327026840938275   T   T   T
  0.0225879403715337  0.5594894370586101  0.1327026840938275   T   T   T
  0.3107453996284621  0.5593590360093887  0.1327026840938275   T   T   T
  0.3559212703715357  0.8928227670586122  0.1327026840938275   T   T   T
  0.6440787296284642  0.8926923660093908  0.1327026840938275   T   T   T
  0.3333333300000021  0.2260908965339965  0.1454050020286959   T   T   T
  0.6666666699999979  0.5594242365339994  0.1454050020286959   T   T   T
  0.0000000000000000  0.8927575665340015  0.1454050020286959   T   T   T
  0.1666666699999979  0.0594242365339994  0.1742412380125795   T   T   T
  0.5000000000000000  0.3927575665340015  0.1742412380125795   T   T   T
  0.8333333300000021  0.7260908965340036  0.1742412380125795   T   T   T
  0.5186858462282556  0.0601420531758859  0.1834518343973408   T   T   T
  0.8146474937717402  0.0587064198921129  0.1834518343973408   T   T   T
  0.1479808237717422  0.3920397498921148  0.1834518343973408   T   T   T
  0.8520191762282577  0.3934753831758882  0.1834518343973408   T   T   T
  0.1853525062282599  0.7268087131758900  0.1834518343973408   T   T   T
  0.4813141537717442  0.7253730798921172  0.1834518343973408   T   T   T
  0.4813141537717442  0.2253730798921100  0.2420952047066556   T   T   T
  0.5186858462282556  0.5601420531758858  0.2420952047066556   T   T   T
  0.1853525062282599  0.2268087131758830  0.2420952047066556   T   T   T
  0.8146474937717402  0.5587064198921130  0.2420952047066556   T   T   T
  0.1479808237717422  0.8920397498921151  0.2420952047066556   T   T   T
  0.8520191762282577  0.8934753831758879  0.2420952047066556   T   T   T
  0.8333333300000021  0.2260908965339965  0.2513058010914169   T   T   T
  0.1666666699999979  0.5594242365339994  0.2513058010914169   T   T   T
  0.5000000000000000  0.8927575665340015  0.2513058010914169   T   T   T
  0.6666666699999979  0.0594242365339994  0.2801420370753005   T   T   T
  0.0000000000000000  0.3927575665340015  0.2801420370753005   T   T   T
  0.3333333300000021  0.7260908965340036  0.2801420370753005   T   T   T
  0.0225879403715337  0.0594894370586104  0.2928443550101760   T   T   T
  0.3107453996284621  0.0593590360093884  0.2928443550101760   T   T   T
  0.3559212703715358  0.3928227670586126  0.2928443550101760   T   T   T
  0.6440787296284642  0.3926923660093904  0.2928443550101760   T   T   T
  0.6892546003715379  0.7261560970586143  0.2928443550101760   T   T   T
  0.9774120596284663  0.7260256960093929  0.2928443550101760   T   T   T
  0.6893618902209316  0.2291480499001259  0.3494211579676099   T   T   T
  0.9773047697790725  0.2230337431678671  0.3494211579676099   T   T   T
  0.0226952302209276  0.5624813899001286  0.3494211579676099   T   T   T
  0.3106381097790682  0.5563670831678702  0.3494211579676099   T   T   T
  0.3560285602209297  0.8958147199001307  0.3494211579676099   T   T   T
  0.6439714397790705  0.8897004131678723  0.3494211579676099   T   T   T
  0.3333333300000021  0.2260908965339965  0.3614415439290014   T   T   T
  0.6666666699999979  0.5594242365339994  0.3614415439290014   T   T   T
  0.0000000000000000  0.8927575665340015  0.3614415439290014   T   T   T
 
  0.00000000E+00  0.00000000E+00  0.00000000E+00
  0.00000000E+00  0.00000000E+00  0.00000000E+00
  0.00000000E+00  0.00000000E+00  0.00000000E+00
  0.00000000E+00  0.00000000E+00  0.00000000E+00
  0.00000000E+00  0.00000000E+00  0.00000000E+00
  0.00000000E+00  0.00000000E+00  0.00000000E+00
  0.00000000E+00  0.00000000E+00  0.00000000E+00
  0.00000000E+00  0.00000000E+00  0.00000000E+00
  0.00000000E+00  0.00000000E+00  0.00000000E+00
  0.00000000E+00  0.00000000E+00  0.00000000E+00
  0.00000000E+00  0.00000000E+00  0.00000000E+00
  0.00000000E+00  0.00000000E+00  0.00000000E+00
  0.00000000E+00  0.00000000E+00  0.00000000E+00
  0.00000000E+00  0.00000000E+00  0.00000000E+00
  0.00000000E+00  0.00000000E+00  0.00000000E+00
  0.00000000E+00  0.00000000E+00  0.00000000E+00
  0.00000000E+00  0.00000000E+00  0.00000000E+00
  0.00000000E+00  0.00000000E+00  0.00000000E+00
  0.00000000E+00  0.00000000E+00  0.00000000E+00
  0.00000000E+00  0.00000000E+00  0.00000000E+00
  0.00000000E+00  0.00000000E+00  0.00000000E+00
  0.00000000E+00  0.00000000E+00  0.00000000E+00
  0.00000000E+00  0.00000000E+00  0.00000000E+00
  0.00000000E+00  0.00000000E+00  0.00000000E+00
  0.00000000E+00  0.00000000E+00  0.00000000E+00
  0.00000000E+00  0.00000000E+00  0.00000000E+00
  0.00000000E+00  0.00000000E+00  0.00000000E+00
  0.00000000E+00  0.00000000E+00  0.00000000E+00
  0.00000000E+00  0.00000000E+00  0.00000000E+00
  0.00000000E+00  0.00000000E+00  0.00000000E+00
  0.00000000E+00  0.00000000E+00  0.00000000E+00
  0.00000000E+00  0.00000000E+00  0.00000000E+00
  0.00000000E+00  0.00000000E+00  0.00000000E+00
  0.00000000E+00  0.00000000E+00  0.00000000E+00
  0.00000000E+00  0.00000000E+00  0.00000000E+00
  0.00000000E+00  0.00000000E+00  0.00000000E+00
  0.00000000E+00  0.00000000E+00  0.00000000E+00
  0.00000000E+00  0.00000000E+00  0.00000000E+00
  0.00000000E+00  0.00000000E+00  0.00000000E+00
  0.00000000E+00  0.00000000E+00  0.00000000E+00
  0.00000000E+00  0.00000000E+00  0.00000000E+00
  0.00000000E+00  0.00000000E+00  0.00000000E+00
  0.00000000E+00  0.00000000E+00  0.00000000E+00
  0.00000000E+00  0.00000000E+00  0.00000000E+00
  0.00000000E+00  0.00000000E+00  0.00000000E+00
  0.00000000E+00  0.00000000E+00  0.00000000E+00
  0.00000000E+00  0.00000000E+00  0.00000000E+00
  0.00000000E+00  0.00000000E+00  0.00000000E+00
  0.00000000E+00  0.00000000E+00  0.00000000E+00
  0.00000000E+00  0.00000000E+00  0.00000000E+00
  0.00000000E+00  0.00000000E+00  0.00000000E+00
  0.00000000E+00  0.00000000E+00  0.00000000E+00
  0.00000000E+00  0.00000000E+00  0.00000000E+00
  0.00000000E+00  0.00000000E+00  0.00000000E+00
  0.00000000E+00  0.00000000E+00  0.00000000E+00
  0.00000000E+00  0.00000000E+00  0.00000000E+00
  0.00000000E+00  0.00000000E+00  0.00000000E+00
  0.00000000E+00  0.00000000E+00  0.00000000E+00
  0.00000000E+00  0.00000000E+00  0.00000000E+00
  0.00000000E+00  0.00000000E+00  0.00000000E+00
  0.00000000E+00  0.00000000E+00  0.00000000E+00
  0.00000000E+00  0.00000000E+00  0.00000000E+00
  0.00000000E+00  0.00000000E+00  0.00000000E+00
  0.00000000E+00  0.00000000E+00  0.00000000E+00
  0.00000000E+00  0.00000000E+00  0.00000000E+00
  0.00000000E+00  0.00000000E+00  0.00000000E+00
  0.00000000E+00  0.00000000E+00  0.00000000E+00
  0.00000000E+00  0.00000000E+00  0.00000000E+00
  0.00000000E+00  0.00000000E+00  0.00000000E+00
  0.00000000E+00  0.00000000E+00  0.00000000E+00
  0.00000000E+00  0.00000000E+00  0.00000000E+00
  0.00000000E+00  0.00000000E+00  0.00000000E+00
  0.00000000E+00  0.00000000E+00  0.00000000E+00
  0.00000000E+00  0.00000000E+00  0.00000000E+00
  0.00000000E+00  0.00000000E+00  0.00000000E+00
  0.00000000E+00  0.00000000E+00  0.00000000E+00
  0.00000000E+00  0.00000000E+00  0.00000000E+00
  0.00000000E+00  0.00000000E+00  0.00000000E+00
  0.00000000E+00  0.00000000E+00  0.00000000E+00
  0.00000000E+00  0.00000000E+00  0.00000000E+00
  0.00000000E+00  0.00000000E+00  0.00000000E+00
  0.00000000E+00  0.00000000E+00  0.00000000E+00
  0.00000000E+00  0.00000000E+00  0.00000000E+00
  0.00000000E+00  0.00000000E+00  0.00000000E+00
  0.00000000E+00  0.00000000E+00  0.00000000E+00
  0.00000000E+00  0.00000000E+00  0.00000000E+00
  0.00000000E+00  0.00000000E+00  0.00000000E+00
  0.00000000E+00  0.00000000E+00  0.00000000E+00
  0.00000000E+00  0.00000000E+00  0.00000000E+00
  0.00000000E+00  0.00000000E+00  0.00000000E+00
