In O H                                  
   1.00000000000000     
    14.4942117030500004    0.0000000000000000    0.0000000000000000
    -7.2471058515250002   12.5523555426710001    0.0000000000000000
     0.0000000000000000    0.0000000000000000   26.8344742987830003
   In   O    H 
    48    71     1
Selective dynamics
Direct
  0.2818303143092269  0.0176580246328493  0.1059987808836880   T   T   T
  0.2436361421166758  0.2336726113281962  0.1018027355128359   T   T   T
  0.7370336161667833  0.2213496020376416  0.1066131006634485   T   T   T
  0.9920703874436718  0.2599727049980390  0.1010670697801738   T   T   T
  0.2707026388823712  0.5117947546731962  0.1027151075765076   T   T   T
  0.4856329257512778  0.7661442729981565  0.1070561999563677   T   T   T
  0.9972267869625007  0.0096164302969338  0.1108239080163786   T   T   T
  0.0142995379925275  0.5062831656454474  0.1112068138726526   T   T   T
  0.4952582649374797  0.4913394953461701  0.1125026596197618   T   T   T
  0.5016964739600211  0.0017482736523577  0.0997879985638900   T   T   T
  0.5147151804710178  0.2403373332327019  0.1107347192008503   T   T   T
  0.7215706286460601  0.4891910653304066  0.1206656148065893   T   T   T
  0.0148454055689216  0.7352328391467620  0.1211776832609694   T   T   T
  0.2631491851625025  0.7763028785385664  0.1110711317408205   T   T   T
  0.7659361007131384  0.7791862107989411  0.1214577071436066   T   T   T
  0.7268444878172672  0.9879929487469534  0.1120164564826616   T   T   T
  0.1569203018951940  0.0950384901382416  0.2112473999031567   T   T   T
  0.9412575521023013  0.3457214392824958  0.2097866595364734   T   T   T
  0.4096606376395471  0.5646845244416405  0.2128148041450937   T   T   T
  0.9015143472983808  0.5588016044552104  0.2131536804845260   T   T   T
  0.6579429841044060  0.5991182246114524  0.2182813850264023   T   T   T
  0.9458037271354609  0.8473124637474260  0.2122446592735054   T   T   T
  0.6660617705103423  0.3353268544868219  0.2207195767268386   T   T   T
  0.1695309941845278  0.8362792983039899  0.2205595966287459   T   T   T
  0.6679725470472783  0.8343805679987809  0.2216196869431503   T   T   T
  0.1681913517482228  0.3349318363121729  0.2196167502972922   T   T   T
  0.6774120652892655  0.0688802501498919  0.2260880018153746   T   T   T
  0.4339777962114334  0.1115426950964269  0.2254829358589477   T   T   T
  0.9272032303895726  0.1060755984574014  0.2280640517432611   T   T   T
  0.3968506854550549  0.3235688651651867  0.2290503491909413   T   T   T
  0.1803344020039789  0.5763286777157055  0.2287452886309611   T   T   T
  0.3921011846100794  0.8255679973281164  0.2257905227026420   T   T   T
  0.6135863173311311  0.1816119756407191  0.3213675297838294   T   T   T
  0.8301473665520096  0.4172507846038211  0.3203717971781008   T   T   T
  0.6060997022430037  0.6815267101106457  0.3309514095465156   T   T   T
  0.0757232594732927  0.8985627473490646  0.3281443031437006   T   T   T
  0.5666638712373949  0.8897329015505732  0.3212138134862322   T   T   T
  0.3226711214966972  0.9361792330585433  0.3210399643430246   T   T   T
  0.3238958289406339  0.1651831235425858  0.3293320907082082   T   T   T
  0.8412039546122303  0.1763358375846983  0.3288825204244528   T   T   T
  0.3378977380356343  0.6625973960215801  0.3297761154333660   T   T   T
  0.8394965943969862  0.6817936401193994  0.3323942875425808   T   T   T
  0.0669302963642367  0.1593381386647201  0.3379185616060942   T   T   T
  0.3405740088152744  0.4100079536613525  0.3380174181148884   T   T   T
  0.0935420769986060  0.4359965857507377  0.3377642374168436   T   T   T
  0.5896522554192213  0.4426092048583468  0.3413118493194938   T   T   T
  0.0523804056102106  0.6525427907428514  0.3335158752674234   T   T   T
  0.8501354835350430  0.9071790076593927  0.3349557297057679   T   T   T
  0.5875705575800682  0.1632913274521628  0.0699029879614303   T   T   T
  0.3401947272677404  0.9258727091299810  0.0698196072907109   T   T   T
  0.5778339762871332  0.9158312861678545  0.0705106657074364   T   T   T
  0.8307279272309239  0.1486659736510001  0.0839768603455579   T   T   T
  0.3537932376439081  0.1832129355753260  0.0829014835350086   T   T   T
  0.3202263756293893  0.6721894205816317  0.0836224201336833   T   T   T
  0.5668824640207495  0.4028224534968018  0.0892862739153492   T   T   T
  0.0997331088328693  0.6663894222270241  0.0886833110128809   T   T   T
  0.8360102196838404  0.9336822624949384  0.0894269359983413   T   T   T
  0.0757630047843080  0.1749397183799399  0.0860893110989693   T   T   T
  0.3296087475430546  0.4031246800388438  0.0877181537146156   T   T   T
  0.1018274098393482  0.4280850340207963  0.0870814477763717   T   T   T
  0.8900195426852155  0.5631496721357956  0.1235152348785517   T   T   T
  0.6737225723757997  0.6122858591999533  0.1211349344101465   T   T   T
  0.9398867663156524  0.8284613669429275  0.1237980688428913   T   T   T
  0.1606085273026044  0.0573121198486720  0.1295782256706992   T   T   T
  0.8986955376713206  0.3428696463565600  0.1291123399398837   T   T   T
  0.4459634842444203  0.6057740878783515  0.1316223037993940   T   T   T
  0.6874736932280509  0.3269725488807788  0.1408403862412984   T   T   T
  0.6396781207432919  0.8150110378445016  0.1417494036254825   T   T   T
  0.1766065114913372  0.8626982431177309  0.1404451206020216   T   T   T
  0.4284893914619028  0.0800420479496713  0.1482504138725218   T   T   T
  0.6520686699795464  0.0751347762606892  0.1488574435681848   T   T   T
  0.4236340508652431  0.8514007734961968  0.1484902949831817   T   T   T
  0.0124794961105763  0.2522323928004370  0.1808595504724630   T   T   T
  0.2506261671175277  0.2610871437425198  0.1815129960058266   T   T   T
  0.2423206712886751  0.4916390034344458  0.1822278771982132   T   T   T
  0.9820436359105850  0.0090576786935813  0.1912621380943813   T   T   T
  0.4969902715550183  0.4769086532055332  0.1933711446584309   T   T   T
  0.0277423349256890  0.5220008964754539  0.1919864540973946   T   T   T
  0.5032267089238329  0.2762968768097305  0.1986315861293858   T   T   T
  0.2277752682934978  0.7302558286327985  0.1982587497559438   T   T   T
  0.7727621577029541  0.9988677637856671  0.1986137378643291   T   T   T
  0.7327434385783815  0.5081450752259070  0.2018711394056461   T   T   T
  0.9955125335353815  0.7264768167718146  0.2027771458044214   T   T   T
  0.7746928690111033  0.7668047303061556  0.2024765273011047   T   T   T
  0.6029784548993803  0.1636156652607707  0.2409835076310835   T   T   T
  0.5597156146324914  0.8998654995224048  0.2405476657781286   T   T   T
  0.3418881233604440  0.9440754279480156  0.2405851938520193   T   T   T
  0.8343119508236220  0.3932336637043344  0.2401012955996361   T   T   T
  0.5642048134704933  0.6685868979518732  0.2460906761237443   T   T   T
  0.1095992194048971  0.9414708531963808  0.2424612174798528   T   T   T
  0.3088364264099839  0.1487798251117450  0.2489675519940975   T   T   T
  0.8408352081651530  0.1950943745488510  0.2484886113551493   T   T   T
  0.3554161029534924  0.6629570030876345  0.2493956481933717   T   T   T
  0.0936979143597567  0.1791056438832622  0.2584281239555369   T   T   T
  0.0855838233092345  0.4087007437895394  0.2584216374360582   T   T   T
  0.3229471463148457  0.4162474053900068  0.2586662541075164   T   T   T
  0.6846600279724401  0.5876741923063927  0.2974095190968789   T   T   T
  0.8963868953012846  0.5826681000946008  0.2945871149505017   T   T   T
  0.9141702378459571  0.8272385382501395  0.2900347927113989   T   T   T
  0.6600693116039723  0.3519250838970640  0.3028919941723390   T   T   T
  0.1582082363528131  0.8080689415853031  0.3011125026899404   T   T   T
  0.6946875323659891  0.8546916908276972  0.3020282011347644   T   T   T
  0.8913484647721355  0.0649507564770284  0.3099519316891756   T   T   T
  0.4386487860932364  0.3280689424046256  0.3106908212523970   T   T   T
  0.1730881888435140  0.6125939284745426  0.3104265375472732   T   T   T
  0.6616040689424214  0.0572844636184806  0.3195578261332283   T   T   T
  0.4467896962399851  0.1091353975528024  0.3207804325032009   T   T   T
  0.3945844292814892  0.8411362206026702  0.3199395480696965   T   T   T
  0.2352029183379992  0.2426685271688727  0.3535826398540705   T   T   T
  0.0072182349590479  0.2675063261468464  0.3534843801712276   T   T   T
  0.2591202854298776  0.4965419547862003  0.3541274339236252   T   T   T
  0.2366499973009585  0.0050055596812471  0.3524655545166970   T   T   T
  0.7697114564704362  0.2641416335756316  0.3529853201744880   T   T   T
  0.4978851352243027  0.7362014781175122  0.3537748307615476   T   T   T
  0.9811274117179644  0.4858331374474252  0.3563795241550635   T   T   T
  0.4984746493679240  0.5227400267637839  0.3562118233967012   T   T   T
  0.0161496535439997  0.9985338218026106  0.3579641725025944   T   T   T
  0.7598609832299724  0.7536203615155855  0.3700054146775726   T   T   T
  0.9909161812390418  0.7434203044338265  0.3684167945244882   T   T   T
  0.6679544668474285  0.4564547901077624  0.3938415833788060   T   T   T
 
  0.00000000E+00  0.00000000E+00  0.00000000E+00
  0.00000000E+00  0.00000000E+00  0.00000000E+00
  0.00000000E+00  0.00000000E+00  0.00000000E+00
  0.00000000E+00  0.00000000E+00  0.00000000E+00
  0.00000000E+00  0.00000000E+00  0.00000000E+00
  0.00000000E+00  0.00000000E+00  0.00000000E+00
  0.00000000E+00  0.00000000E+00  0.00000000E+00
  0.00000000E+00  0.00000000E+00  0.00000000E+00
  0.00000000E+00  0.00000000E+00  0.00000000E+00
  0.00000000E+00  0.00000000E+00  0.00000000E+00
  0.00000000E+00  0.00000000E+00  0.00000000E+00
  0.00000000E+00  0.00000000E+00  0.00000000E+00
  0.00000000E+00  0.00000000E+00  0.00000000E+00
  0.00000000E+00  0.00000000E+00  0.00000000E+00
  0.00000000E+00  0.00000000E+00  0.00000000E+00
  0.00000000E+00  0.00000000E+00  0.00000000E+00
  0.00000000E+00  0.00000000E+00  0.00000000E+00
  0.00000000E+00  0.00000000E+00  0.00000000E+00
  0.00000000E+00  0.00000000E+00  0.00000000E+00
  0.00000000E+00  0.00000000E+00  0.00000000E+00
  0.00000000E+00  0.00000000E+00  0.00000000E+00
  0.00000000E+00  0.00000000E+00  0.00000000E+00
  0.00000000E+00  0.00000000E+00  0.00000000E+00
  0.00000000E+00  0.00000000E+00  0.00000000E+00
  0.00000000E+00  0.00000000E+00  0.00000000E+00
  0.00000000E+00  0.00000000E+00  0.00000000E+00
  0.00000000E+00  0.00000000E+00  0.00000000E+00
  0.00000000E+00  0.00000000E+00  0.00000000E+00
  0.00000000E+00  0.00000000E+00  0.00000000E+00
  0.00000000E+00  0.00000000E+00  0.00000000E+00
  0.00000000E+00  0.00000000E+00  0.00000000E+00
  0.00000000E+00  0.00000000E+00  0.00000000E+00
  0.00000000E+00  0.00000000E+00  0.00000000E+00
  0.00000000E+00  0.00000000E+00  0.00000000E+00
  0.00000000E+00  0.00000000E+00  0.00000000E+00
  0.00000000E+00  0.00000000E+00  0.00000000E+00
  0.00000000E+00  0.00000000E+00  0.00000000E+00
  0.00000000E+00  0.00000000E+00  0.00000000E+00
  0.00000000E+00  0.00000000E+00  0.00000000E+00
  0.00000000E+00  0.00000000E+00  0.00000000E+00
  0.00000000E+00  0.00000000E+00  0.00000000E+00
  0.00000000E+00  0.00000000E+00  0.00000000E+00
  0.00000000E+00  0.00000000E+00  0.00000000E+00
  0.00000000E+00  0.00000000E+00  0.00000000E+00
  0.00000000E+00  0.00000000E+00  0.00000000E+00
  0.00000000E+00  0.00000000E+00  0.00000000E+00
  0.00000000E+00  0.00000000E+00  0.00000000E+00
  0.00000000E+00  0.00000000E+00  0.00000000E+00
  0.00000000E+00  0.00000000E+00  0.00000000E+00
  0.00000000E+00  0.00000000E+00  0.00000000E+00
  0.00000000E+00  0.00000000E+00  0.00000000E+00
  0.00000000E+00  0.00000000E+00  0.00000000E+00
  0.00000000E+00  0.00000000E+00  0.00000000E+00
  0.00000000E+00  0.00000000E+00  0.00000000E+00
  0.00000000E+00  0.00000000E+00  0.00000000E+00
  0.00000000E+00  0.00000000E+00  0.00000000E+00
  0.00000000E+00  0.00000000E+00  0.00000000E+00
  0.00000000E+00  0.00000000E+00  0.00000000E+00
  0.00000000E+00  0.00000000E+00  0.00000000E+00
  0.00000000E+00  0.00000000E+00  0.00000000E+00
  0.00000000E+00  0.00000000E+00  0.00000000E+00
  0.00000000E+00  0.00000000E+00  0.00000000E+00
  0.00000000E+00  0.00000000E+00  0.00000000E+00
  0.00000000E+00  0.00000000E+00  0.00000000E+00
  0.00000000E+00  0.00000000E+00  0.00000000E+00
  0.00000000E+00  0.00000000E+00  0.00000000E+00
  0.00000000E+00  0.00000000E+00  0.00000000E+00
  0.00000000E+00  0.00000000E+00  0.00000000E+00
  0.00000000E+00  0.00000000E+00  0.00000000E+00
  0.00000000E+00  0.00000000E+00  0.00000000E+00
  0.00000000E+00  0.00000000E+00  0.00000000E+00
  0.00000000E+00  0.00000000E+00  0.00000000E+00
  0.00000000E+00  0.00000000E+00  0.00000000E+00
  0.00000000E+00  0.00000000E+00  0.00000000E+00
  0.00000000E+00  0.00000000E+00  0.00000000E+00
  0.00000000E+00  0.00000000E+00  0.00000000E+00
  0.00000000E+00  0.00000000E+00  0.00000000E+00
  0.00000000E+00  0.00000000E+00  0.00000000E+00
  0.00000000E+00  0.00000000E+00  0.00000000E+00
  0.00000000E+00  0.00000000E+00  0.00000000E+00
  0.00000000E+00  0.00000000E+00  0.00000000E+00
  0.00000000E+00  0.00000000E+00  0.00000000E+00
  0.00000000E+00  0.00000000E+00  0.00000000E+00
  0.00000000E+00  0.00000000E+00  0.00000000E+00
  0.00000000E+00  0.00000000E+00  0.00000000E+00
  0.00000000E+00  0.00000000E+00  0.00000000E+00
  0.00000000E+00  0.00000000E+00  0.00000000E+00
  0.00000000E+00  0.00000000E+00  0.00000000E+00
  0.00000000E+00  0.00000000E+00  0.00000000E+00
  0.00000000E+00  0.00000000E+00  0.00000000E+00
  0.00000000E+00  0.00000000E+00  0.00000000E+00
  0.00000000E+00  0.00000000E+00  0.00000000E+00
  0.00000000E+00  0.00000000E+00  0.00000000E+00
  0.00000000E+00  0.00000000E+00  0.00000000E+00
  0.00000000E+00  0.00000000E+00  0.00000000E+00
  0.00000000E+00  0.00000000E+00  0.00000000E+00
  0.00000000E+00  0.00000000E+00  0.00000000E+00
  0.00000000E+00  0.00000000E+00  0.00000000E+00
  0.00000000E+00  0.00000000E+00  0.00000000E+00
  0.00000000E+00  0.00000000E+00  0.00000000E+00
  0.00000000E+00  0.00000000E+00  0.00000000E+00
  0.00000000E+00  0.00000000E+00  0.00000000E+00
  0.00000000E+00  0.00000000E+00  0.00000000E+00
  0.00000000E+00  0.00000000E+00  0.00000000E+00
  0.00000000E+00  0.00000000E+00  0.00000000E+00
  0.00000000E+00  0.00000000E+00  0.00000000E+00
  0.00000000E+00  0.00000000E+00  0.00000000E+00
  0.00000000E+00  0.00000000E+00  0.00000000E+00
  0.00000000E+00  0.00000000E+00  0.00000000E+00
  0.00000000E+00  0.00000000E+00  0.00000000E+00
  0.00000000E+00  0.00000000E+00  0.00000000E+00
  0.00000000E+00  0.00000000E+00  0.00000000E+00
  0.00000000E+00  0.00000000E+00  0.00000000E+00
  0.00000000E+00  0.00000000E+00  0.00000000E+00
  0.00000000E+00  0.00000000E+00  0.00000000E+00
  0.00000000E+00  0.00000000E+00  0.00000000E+00
  0.00000000E+00  0.00000000E+00  0.00000000E+00
  0.00000000E+00  0.00000000E+00  0.00000000E+00
  0.00000000E+00  0.00000000E+00  0.00000000E+00
  0.00000000E+00  0.00000000E+00  0.00000000E+00
