C In O                                  
   1.00000000000000     
     9.6230998390600000    0.0000000000000000    0.0000000000000000
     0.0000000000000000   14.6922204141950008    0.0000000000000000
     0.0000000000000000    0.0000000000000000   26.1117985650409992
   C    In   O 
     1    36    55
Selective dynamics
Direct
  0.0000000003759979  0.8927581831639984  0.4474894766112226   T   T   T
  0.5009409814530859  0.0126073318662677  0.1012513526680937   T   T   T
  0.8277259898769879  0.1089304988026814  0.1018649288762360   T   T   T
  0.1640493729990699  0.1614706711731464  0.1056610778110754   T   T   T
  0.4996691566709818  0.2928223050896457  0.1070933298622025   T   T   T
  0.8357808964068802  0.3457734620821586  0.1040482009558576   T   T   T
  0.1642191035931126  0.4397416709868392  0.1040482009558576   T   T   T
  0.5003308433290181  0.4926928279793520  0.1070933298622025   T   T   T
  0.8359506270009229  0.6240444618958515  0.1056610778110754   T   T   T
  0.1722740101230050  0.6765846342663164  0.1018649288762360   T   T   T
  0.4990590185469070  0.7729078012027371  0.1012513526680937   T   T   T
  0.8339040062762412  0.8237446625743179  0.1058223348207150   T   T   T
  0.1660959937237589  0.9617704704946799  0.1058223348207150   T   T   T
  0.9932729765288679  0.9997552221555567  0.2123405171730590   T   T   T
  0.3329715117075263  0.1212602936396113  0.2132614942125502   T   T   T
  0.6675219556077351  0.1679944188348207  0.2079645395347138   T   T   T
  0.0027978881322784  0.2834964762623574  0.2076160642633037   T   T   T
  0.3336546741827572  0.3369064063905264  0.2166757182262778   T   T   T
  0.6663453258172426  0.4486087266784713  0.2166757182262778   T   T   T
  0.9972021118677216  0.5020186568066476  0.2076160642633037   T   T   T
  0.3324780443922649  0.6175207142341772  0.2079645395347138   T   T   T
  0.6670284882924739  0.6642548394293795  0.2132614942125502   T   T   T
  0.0067270234711321  0.7857599109134411  0.2123405171730590   T   T   T
  0.3395195683885311  0.8337907093755405  0.2046402100112834   T   T   T
  0.6604804316114690  0.9517244236934573  0.2046402100112834   T   T   T
  0.5054748121287894  0.9949441842967548  0.3171345136331716   T   T   T
  0.8392810406515835  0.1206478722929316  0.3164128631215388   T   T   T
  0.1915339730528651  0.1896415940480200  0.3233123414018578   T   T   T
  0.5118998526049725  0.2758293328582066  0.3199489047908652   T   T   T
  0.8406149409774371  0.3206361984675007  0.3171471551825112   T   T   T
  0.1593850590225560  0.4648789346014971  0.3171471551825112   T   T   T
  0.4881001473950275  0.5096858002107982  0.3199489047908652   T   T   T
  0.8084660269471348  0.5958735390209777  0.3233123414018578   T   T   T
  0.1607189593484166  0.6648672607760591  0.3164128631215388   T   T   T
  0.4945251878712106  0.7905709487722430  0.3171345136331716   T   T   T
  0.8174986599433843  0.8378698024125031  0.3101463902539649   T   T   T
  0.1825013400566157  0.9476453306564947  0.3101463902539649   T   T   T
  0.6626764149929781  0.0636083427881765  0.0603390422679791   T   T   T
  0.0000000000000000  0.3927575665340015  0.0625703251678405   T   T   T
  0.3373235850070219  0.7219067902798336  0.0603390422679791   T   T   T
  0.0204366739066383  0.0633165244021178  0.0746464695578976   T   T   T
  0.3081134995237111  0.0598539597608045  0.0747149660878361   T   T   T
  0.3561816937472546  0.3943980117618581  0.0758997737551099   T   T   T
  0.6438183062527454  0.3911171213061449  0.0758997737551099   T   T   T
  0.6918865004762889  0.7256611733071844  0.0747149660878361   T   T   T
  0.9795633260933617  0.7221986086658853  0.0746464695578976   T   T   T
  0.6888113935814998  0.2269355289607169  0.1318138337690597   T   T   T
  0.9765224775839562  0.2273872829397769  0.1313566481101065   T   T   T
  0.0234775224160438  0.5581278501282262  0.1313566481101065   T   T   T
  0.3111886064185002  0.5585796041072790  0.1318138337690597   T   T   T
  0.3567083876620717  0.8934461425035035  0.1285226039779053   T   T   T
  0.6432916123379212  0.8920689905644995  0.1285226039779053   T   T   T
  0.3308364676193653  0.2272207764526982  0.1459519554525998   T   T   T
  0.6691635323806346  0.5582943566152835  0.1459519554525998   T   T   T
  0.0000000000000000  0.8927575665340015  0.1435871520115333   T   T   T
  0.1619372233580373  0.0626421369402863  0.1733139763499267   T   T   T
  0.5000000000000000  0.3927575665340015  0.1740054549985136   T   T   T
  0.8380627766419698  0.7228729961277167  0.1733139763499267   T   T   T
  0.5156662074659141  0.0609923408889402  0.1805273968475228   T   T   T
  0.8113451362164840  0.0587424352426590  0.1800331063479925   T   T   T
  0.1480675648645252  0.3930067047277147  0.1833722535564699   T   T   T
  0.8519324351354678  0.3925084283402883  0.1833722535564699   T   T   T
  0.1886548637835159  0.7267726978253369  0.1800331063479925   T   T   T
  0.4843337925340859  0.7245227921790628  0.1805273968475228   T   T   T
  0.4842985217998370  0.2269101395197256  0.2421313615885639   T   T   T
  0.5157014782001630  0.5586049935482774  0.2421313615885639   T   T   T
  0.1870344463230656  0.2284264053210250  0.2434946535352970   T   T   T
  0.8129655536769345  0.5570887277469709  0.2434946535352970   T   T   T
  0.1557853905182338  0.8959339781165810  0.2355395669620894   T   T   T
  0.8442146094817662  0.8895811549514220  0.2355395669620894   T   T   T
  0.8401577219268644  0.2214456225985117  0.2505261159907948   T   T   T
  0.1598422780731356  0.5640695104694842  0.2505261159907948   T   T   T
  0.5000000000000000  0.8927575665340015  0.2511714869201562   T   T   T
  0.6685513600758559  0.0587827015942473  0.2767266634352906   T   T   T
  0.0000000000000000  0.3927575665340015  0.2804178439930466   T   T   T
  0.3314486399241440  0.7267324314737629  0.2767266634352906   T   T   T
  0.0008370884072026  0.0260530299565325  0.2960863116969207   T   T   T
  0.3126518723845396  0.0664058790258910  0.2920251882290372   T   T   T
  0.3513698825211037  0.3947647576831554  0.2937574574145201   T   T   T
  0.6486301174788964  0.3907503753848547  0.2937574574145201   T   T   T
  0.6873481276154604  0.7191092540421050  0.2920251882290372   T   T   T
  0.9991629115927974  0.7594621031114704  0.2960863116969207   T   T   T
  0.7017308098479972  0.2242492881908428  0.3495161801603634   T   T   T
  0.9903089514023727  0.2137857476122358  0.3468747212777784   T   T   T
  0.0096910485976272  0.5717293854557671  0.3468747212777784   T   T   T
  0.2982691901520028  0.5612658448771530  0.3495161801603634   T   T   T
  0.3534748436616854  0.8978473344454562  0.3491318113997159   T   T   T
  0.6465251563383149  0.8876677986225469  0.3491318113997159   T   T   T
  0.3560896496009515  0.2289797827276551  0.3655516916214239   T   T   T
  0.6439103503990555  0.5565353503403410  0.3655516916214239   T   T   T
  0.0000000000000000  0.8927581829169995  0.4021817448327609   T   T   T
  0.0000000009450005  0.8927581836540028  0.4922815786010191   T   T   T
 
  0.00000000E+00  0.00000000E+00  0.00000000E+00
  0.00000000E+00  0.00000000E+00  0.00000000E+00
  0.00000000E+00  0.00000000E+00  0.00000000E+00
  0.00000000E+00  0.00000000E+00  0.00000000E+00
  0.00000000E+00  0.00000000E+00  0.00000000E+00
  0.00000000E+00  0.00000000E+00  0.00000000E+00
  0.00000000E+00  0.00000000E+00  0.00000000E+00
  0.00000000E+00  0.00000000E+00  0.00000000E+00
  0.00000000E+00  0.00000000E+00  0.00000000E+00
  0.00000000E+00  0.00000000E+00  0.00000000E+00
  0.00000000E+00  0.00000000E+00  0.00000000E+00
  0.00000000E+00  0.00000000E+00  0.00000000E+00
  0.00000000E+00  0.00000000E+00  0.00000000E+00
  0.00000000E+00  0.00000000E+00  0.00000000E+00
  0.00000000E+00  0.00000000E+00  0.00000000E+00
  0.00000000E+00  0.00000000E+00  0.00000000E+00
  0.00000000E+00  0.00000000E+00  0.00000000E+00
  0.00000000E+00  0.00000000E+00  0.00000000E+00
  0.00000000E+00  0.00000000E+00  0.00000000E+00
  0.00000000E+00  0.00000000E+00  0.00000000E+00
  0.00000000E+00  0.00000000E+00  0.00000000E+00
  0.00000000E+00  0.00000000E+00  0.00000000E+00
  0.00000000E+00  0.00000000E+00  0.00000000E+00
  0.00000000E+00  0.00000000E+00  0.00000000E+00
  0.00000000E+00  0.00000000E+00  0.00000000E+00
  0.00000000E+00  0.00000000E+00  0.00000000E+00
  0.00000000E+00  0.00000000E+00  0.00000000E+00
  0.00000000E+00  0.00000000E+00  0.00000000E+00
  0.00000000E+00  0.00000000E+00  0.00000000E+00
  0.00000000E+00  0.00000000E+00  0.00000000E+00
  0.00000000E+00  0.00000000E+00  0.00000000E+00
  0.00000000E+00  0.00000000E+00  0.00000000E+00
  0.00000000E+00  0.00000000E+00  0.00000000E+00
  0.00000000E+00  0.00000000E+00  0.00000000E+00
  0.00000000E+00  0.00000000E+00  0.00000000E+00
  0.00000000E+00  0.00000000E+00  0.00000000E+00
  0.00000000E+00  0.00000000E+00  0.00000000E+00
  0.00000000E+00  0.00000000E+00  0.00000000E+00
  0.00000000E+00  0.00000000E+00  0.00000000E+00
  0.00000000E+00  0.00000000E+00  0.00000000E+00
  0.00000000E+00  0.00000000E+00  0.00000000E+00
  0.00000000E+00  0.00000000E+00  0.00000000E+00
  0.00000000E+00  0.00000000E+00  0.00000000E+00
  0.00000000E+00  0.00000000E+00  0.00000000E+00
  0.00000000E+00  0.00000000E+00  0.00000000E+00
  0.00000000E+00  0.00000000E+00  0.00000000E+00
  0.00000000E+00  0.00000000E+00  0.00000000E+00
  0.00000000E+00  0.00000000E+00  0.00000000E+00
  0.00000000E+00  0.00000000E+00  0.00000000E+00
  0.00000000E+00  0.00000000E+00  0.00000000E+00
  0.00000000E+00  0.00000000E+00  0.00000000E+00
  0.00000000E+00  0.00000000E+00  0.00000000E+00
  0.00000000E+00  0.00000000E+00  0.00000000E+00
  0.00000000E+00  0.00000000E+00  0.00000000E+00
  0.00000000E+00  0.00000000E+00  0.00000000E+00
  0.00000000E+00  0.00000000E+00  0.00000000E+00
  0.00000000E+00  0.00000000E+00  0.00000000E+00
  0.00000000E+00  0.00000000E+00  0.00000000E+00
  0.00000000E+00  0.00000000E+00  0.00000000E+00
  0.00000000E+00  0.00000000E+00  0.00000000E+00
  0.00000000E+00  0.00000000E+00  0.00000000E+00
  0.00000000E+00  0.00000000E+00  0.00000000E+00
  0.00000000E+00  0.00000000E+00  0.00000000E+00
  0.00000000E+00  0.00000000E+00  0.00000000E+00
  0.00000000E+00  0.00000000E+00  0.00000000E+00
  0.00000000E+00  0.00000000E+00  0.00000000E+00
  0.00000000E+00  0.00000000E+00  0.00000000E+00
  0.00000000E+00  0.00000000E+00  0.00000000E+00
  0.00000000E+00  0.00000000E+00  0.00000000E+00
  0.00000000E+00  0.00000000E+00  0.00000000E+00
  0.00000000E+00  0.00000000E+00  0.00000000E+00
  0.00000000E+00  0.00000000E+00  0.00000000E+00
  0.00000000E+00  0.00000000E+00  0.00000000E+00
  0.00000000E+00  0.00000000E+00  0.00000000E+00
  0.00000000E+00  0.00000000E+00  0.00000000E+00
  0.00000000E+00  0.00000000E+00  0.00000000E+00
  0.00000000E+00  0.00000000E+00  0.00000000E+00
  0.00000000E+00  0.00000000E+00  0.00000000E+00
  0.00000000E+00  0.00000000E+00  0.00000000E+00
  0.00000000E+00  0.00000000E+00  0.00000000E+00
  0.00000000E+00  0.00000000E+00  0.00000000E+00
  0.00000000E+00  0.00000000E+00  0.00000000E+00
  0.00000000E+00  0.00000000E+00  0.00000000E+00
  0.00000000E+00  0.00000000E+00  0.00000000E+00
  0.00000000E+00  0.00000000E+00  0.00000000E+00
  0.00000000E+00  0.00000000E+00  0.00000000E+00
  0.00000000E+00  0.00000000E+00  0.00000000E+00
  0.00000000E+00  0.00000000E+00  0.00000000E+00
  0.00000000E+00  0.00000000E+00  0.00000000E+00
  0.00000000E+00  0.00000000E+00  0.00000000E+00
  0.00000000E+00  0.00000000E+00  0.00000000E+00
  0.00000000E+00  0.00000000E+00  0.00000000E+00
