In O H                                  
   1.00000000000000     
     9.6230998390600000    0.0000000000000000    0.0000000000000000
     0.0000000000000000   14.6922204141950008    0.0000000000000000
     0.0000000000000000    0.0000000000000000   26.1117985650409992
   In   O    H 
    36    53     1
Selective dynamics
Direct
  0.5058184785448152  0.0122127883085060  0.1045522131437263   T   T   T
  0.8330039232140810  0.1082263077274856  0.1043092211461695   T   T   T
  0.1681845212169234  0.1600152171732473  0.1075317335411570   T   T   T
  0.5001492999432847  0.2942681818251089  0.1074698375695527   T   T   T
  0.8363959379030221  0.3459673534269590  0.1045261129610684   T   T   T
  0.1641209742385743  0.4416326220309827  0.1048304776223556   T   T   T
  0.5011123770306674  0.4938734122125261  0.1079598111181807   T   T   T
  0.8363146577777726  0.6266066897254478  0.1078040419366802   T   T   T
  0.1729443328468272  0.6789922696978926  0.1045973988545004   T   T   T
  0.5001546057623736  0.7747051701808836  0.1049135922767915   T   T   T
  0.8358897496177937  0.8265876419687362  0.1078327402610745   T   T   T
  0.1704737373364318  0.9598518281159814  0.1080149078804212   T   T   T
  0.0020832641592931  0.0032719545673962  0.2159906960784930   T   T   T
  0.3366948346544285  0.1191502362119757  0.2159920632846209   T   T   T
  0.6680311263441674  0.1700395031270791  0.2081994631686357   T   T   T
  0.0014419983036566  0.2846809572455721  0.2086408196368350   T   T   T
  0.3335102567839190  0.3352379498346801  0.2165564250308965   T   T   T
  0.6672276229503483  0.4505932293725339  0.2168522639261848   T   T   T
  0.9997511606956907  0.5018221967939419  0.2091944317425867   T   T   T
  0.3355367181791444  0.6176014836250719  0.2090686678360292   T   T   T
  0.6691503739256441  0.6664462673254902  0.2158324673179897   T   T   T
  0.0059654788743868  0.7860549516698566  0.2150245301031579   T   T   T
  0.3390574921078232  0.8349891223297258  0.2093175789355152   T   T   T
  0.6698011473107642  0.9522530959920330  0.2088846873224815   T   T   T
  0.5055496010877755  0.9926770713269224  0.3182049096911566   T   T   T
  0.8345591591611630  0.1277847971240310  0.3177180045269752   T   T   T
  0.1720913591892481  0.1808113326414741  0.3213330659268809   T   T   T
  0.4980905960589842  0.2742890265028968  0.3212981428225855   T   T   T
  0.8329798950041499  0.3263598273190878  0.3179898653376205   T   T   T
  0.1641360432412482  0.4595858597092526  0.3183024257790197   T   T   T
  0.4975171286613639  0.5098645889117601  0.3210272567503957   T   T   T
  0.8231832391883456  0.6024988684877539  0.3226170696331515   T   T   T
  0.1665851616456628  0.6588158449284681  0.3173803070195346   T   T   T
  0.5037097256194969  0.7909641711076983  0.3187089673406267   T   T   T
  0.8354936469795680  0.8398945786044300  0.3173127366150078   T   T   T
  0.1739780288837030  0.9455830052662278  0.3179318186903239   T   T   T
  0.6700704635362559  0.0588717819922097  0.0631468516524474   T   T   T
  0.9992264538427049  0.3953125165177529  0.0634228992396041   T   T   T
  0.3361286830522352  0.7281188450553220  0.0633754759263238   T   T   T
  0.0252835082746860  0.0614293474334386  0.0768750227913305   T   T   T
  0.3134308680600870  0.0578633102253235  0.0769278235018698   T   T   T
  0.3561969606954730  0.3963691593678345  0.0767051907340047   T   T   T
  0.6442383042561074  0.3920213222232829  0.0765046160229347   T   T   T
  0.6921431635402561  0.7287599358822074  0.0768634739954088   T   T   T
  0.9803941874150167  0.7248586866264716  0.0770166067826656   T   T   T
  0.6898877986825148  0.2270453153721068  0.1318484552489873   T   T   T
  0.9786048374857613  0.2266847028545184  0.1321424595554048   T   T   T
  0.0247840798760060  0.5605274227819469  0.1331683461054984   T   T   T
  0.3126265562531090  0.5607267140336611  0.1326232143151020   T   T   T
  0.3600624632661501  0.8939263469961976  0.1331807586848657   T   T   T
  0.6477000322276784  0.8933628881054198  0.1330013183910685   T   T   T
  0.3344518608114872  0.2268750748149311  0.1466329757516371   T   T   T
  0.6691973889800474  0.5599946204047526  0.1470002865304391   T   T   T
  0.0032494879090005  0.8933474484868654  0.1471065666924472   T   T   T
  0.1694145688441854  0.0604173584769994  0.1747647272787601   T   T   T
  0.5003282298268875  0.3934980524635234  0.1746991130321419   T   T   T
  0.8369844241019695  0.7265608954586962  0.1751146705825169   T   T   T
  0.5216657032276210  0.0607163865367825  0.1834588529366219   T   T   T
  0.8175263991282719  0.0601116018334623  0.1833474399279647   T   T   T
  0.1486225002482632  0.3927296550848066  0.1835692127091740   T   T   T
  0.8521507447500393  0.3935989484046253  0.1834567813653356   T   T   T
  0.1902244059908904  0.7281560100780488  0.1833340485004985   T   T   T
  0.4849739568532123  0.7257472568525979  0.1836853669730372   T   T   T
  0.4836871678352546  0.2259893898043241  0.2428270521646859   T   T   T
  0.5186476670591664  0.5603048112913664  0.2432128068990705   T   T   T
  0.1854945502991433  0.2268691758830091  0.2428858830738824   T   T   T
  0.8154881758565174  0.5582043797442683  0.2437376766259351   T   T   T
  0.1536223212111197  0.8939078368322294  0.2423820434486977   T   T   T
  0.8558926767584628  0.8952558200578504  0.2425261593492012   T   T   T
  0.8352566676126640  0.2258418408315190  0.2513512825598755   T   T   T
  0.1666367675419967  0.5607795970429722  0.2514730864238024   T   T   T
  0.5061171906088942  0.8917847570583662  0.2528557613655240   T   T   T
  0.6712962273829449  0.0579175832014802  0.2800955659601587   T   T   T
  0.9990498572485063  0.3934807571331487  0.2800494582015527   T   T   T
  0.3354234440732012  0.7271294609093374  0.2808637168535560   T   T   T
  0.0254400872776955  0.0561894584210856  0.2955972960797192   T   T   T
  0.3159002534782412  0.0598667414406169  0.2930374596926590   T   T   T
  0.3542063051658910  0.3922555871546070  0.2938001778701506   T   T   T
  0.6437808467182207  0.3932892910644111  0.2937784375130862   T   T   T
  0.6935460592354170  0.7240845396063684  0.2934881365993357   T   T   T
  0.9843729964968903  0.7345805432448412  0.2943640640433889   T   T   T
  0.6903877217133824  0.2287387115270557  0.3497089336117120   T   T   T
  0.9787557580453529  0.2234262839531520  0.3494649022781456   T   T   T
  0.0183786218682583  0.5647804351034629  0.3491584347376185   T   T   T
  0.3058181156180091  0.5561771467653615  0.3503599326936224   T   T   T
  0.3587189719488543  0.8965276666833246  0.3507991332452142   T   T   T
  0.6523912639439375  0.8879762113754492  0.3508614282798123   T   T   T
  0.3365585311806739  0.2245139507047784  0.3634489709443907   T   T   T
  0.6559338740601074  0.5613189862466454  0.3641038049383973   T   T   T
  0.0051892308487447  0.8946765980900866  0.3501319845213769   T   T   T
 
  0.00000000E+00  0.00000000E+00  0.00000000E+00
  0.00000000E+00  0.00000000E+00  0.00000000E+00
  0.00000000E+00  0.00000000E+00  0.00000000E+00
  0.00000000E+00  0.00000000E+00  0.00000000E+00
  0.00000000E+00  0.00000000E+00  0.00000000E+00
  0.00000000E+00  0.00000000E+00  0.00000000E+00
  0.00000000E+00  0.00000000E+00  0.00000000E+00
  0.00000000E+00  0.00000000E+00  0.00000000E+00
  0.00000000E+00  0.00000000E+00  0.00000000E+00
  0.00000000E+00  0.00000000E+00  0.00000000E+00
  0.00000000E+00  0.00000000E+00  0.00000000E+00
  0.00000000E+00  0.00000000E+00  0.00000000E+00
  0.00000000E+00  0.00000000E+00  0.00000000E+00
  0.00000000E+00  0.00000000E+00  0.00000000E+00
  0.00000000E+00  0.00000000E+00  0.00000000E+00
  0.00000000E+00  0.00000000E+00  0.00000000E+00
  0.00000000E+00  0.00000000E+00  0.00000000E+00
  0.00000000E+00  0.00000000E+00  0.00000000E+00
  0.00000000E+00  0.00000000E+00  0.00000000E+00
  0.00000000E+00  0.00000000E+00  0.00000000E+00
  0.00000000E+00  0.00000000E+00  0.00000000E+00
  0.00000000E+00  0.00000000E+00  0.00000000E+00
  0.00000000E+00  0.00000000E+00  0.00000000E+00
  0.00000000E+00  0.00000000E+00  0.00000000E+00
  0.00000000E+00  0.00000000E+00  0.00000000E+00
  0.00000000E+00  0.00000000E+00  0.00000000E+00
  0.00000000E+00  0.00000000E+00  0.00000000E+00
  0.00000000E+00  0.00000000E+00  0.00000000E+00
  0.00000000E+00  0.00000000E+00  0.00000000E+00
  0.00000000E+00  0.00000000E+00  0.00000000E+00
  0.00000000E+00  0.00000000E+00  0.00000000E+00
  0.00000000E+00  0.00000000E+00  0.00000000E+00
  0.00000000E+00  0.00000000E+00  0.00000000E+00
  0.00000000E+00  0.00000000E+00  0.00000000E+00
  0.00000000E+00  0.00000000E+00  0.00000000E+00
  0.00000000E+00  0.00000000E+00  0.00000000E+00
  0.00000000E+00  0.00000000E+00  0.00000000E+00
  0.00000000E+00  0.00000000E+00  0.00000000E+00
  0.00000000E+00  0.00000000E+00  0.00000000E+00
  0.00000000E+00  0.00000000E+00  0.00000000E+00
  0.00000000E+00  0.00000000E+00  0.00000000E+00
  0.00000000E+00  0.00000000E+00  0.00000000E+00
  0.00000000E+00  0.00000000E+00  0.00000000E+00
  0.00000000E+00  0.00000000E+00  0.00000000E+00
  0.00000000E+00  0.00000000E+00  0.00000000E+00
  0.00000000E+00  0.00000000E+00  0.00000000E+00
  0.00000000E+00  0.00000000E+00  0.00000000E+00
  0.00000000E+00  0.00000000E+00  0.00000000E+00
  0.00000000E+00  0.00000000E+00  0.00000000E+00
  0.00000000E+00  0.00000000E+00  0.00000000E+00
  0.00000000E+00  0.00000000E+00  0.00000000E+00
  0.00000000E+00  0.00000000E+00  0.00000000E+00
  0.00000000E+00  0.00000000E+00  0.00000000E+00
  0.00000000E+00  0.00000000E+00  0.00000000E+00
  0.00000000E+00  0.00000000E+00  0.00000000E+00
  0.00000000E+00  0.00000000E+00  0.00000000E+00
  0.00000000E+00  0.00000000E+00  0.00000000E+00
  0.00000000E+00  0.00000000E+00  0.00000000E+00
  0.00000000E+00  0.00000000E+00  0.00000000E+00
  0.00000000E+00  0.00000000E+00  0.00000000E+00
  0.00000000E+00  0.00000000E+00  0.00000000E+00
  0.00000000E+00  0.00000000E+00  0.00000000E+00
  0.00000000E+00  0.00000000E+00  0.00000000E+00
  0.00000000E+00  0.00000000E+00  0.00000000E+00
  0.00000000E+00  0.00000000E+00  0.00000000E+00
  0.00000000E+00  0.00000000E+00  0.00000000E+00
  0.00000000E+00  0.00000000E+00  0.00000000E+00
  0.00000000E+00  0.00000000E+00  0.00000000E+00
  0.00000000E+00  0.00000000E+00  0.00000000E+00
  0.00000000E+00  0.00000000E+00  0.00000000E+00
  0.00000000E+00  0.00000000E+00  0.00000000E+00
  0.00000000E+00  0.00000000E+00  0.00000000E+00
  0.00000000E+00  0.00000000E+00  0.00000000E+00
  0.00000000E+00  0.00000000E+00  0.00000000E+00
  0.00000000E+00  0.00000000E+00  0.00000000E+00
  0.00000000E+00  0.00000000E+00  0.00000000E+00
  0.00000000E+00  0.00000000E+00  0.00000000E+00
  0.00000000E+00  0.00000000E+00  0.00000000E+00
  0.00000000E+00  0.00000000E+00  0.00000000E+00
  0.00000000E+00  0.00000000E+00  0.00000000E+00
  0.00000000E+00  0.00000000E+00  0.00000000E+00
  0.00000000E+00  0.00000000E+00  0.00000000E+00
  0.00000000E+00  0.00000000E+00  0.00000000E+00
  0.00000000E+00  0.00000000E+00  0.00000000E+00
  0.00000000E+00  0.00000000E+00  0.00000000E+00
  0.00000000E+00  0.00000000E+00  0.00000000E+00
  0.00000000E+00  0.00000000E+00  0.00000000E+00
  0.00000000E+00  0.00000000E+00  0.00000000E+00
  0.00000000E+00  0.00000000E+00  0.00000000E+00
  0.00000000E+00  0.00000000E+00  0.00000000E+00
